TITLE = "ABAQUS"
VARIABLES = "X", "Y", "Z", "U1", "U2", "U3", "U", "S.Mises"
ZONE N = 8324, E = 6084, DATAPACKING = POINT, ZONETYPE = FEBRICK
 0.000000000e+00 -3.219480000e-37  5.500000000e+01  0.000000000e+00 -3.219480000e-37  4.889180000e-37  5.853984331e-37  2.641840000e-01
 1.730390000e+00  5.458855700e+01 -1.291660000e+00  1.730390000e+00 -4.114430000e-01 -1.291660000e+00  2.198162972e+00  1.315720000e-01
-5.500000000e+01 -1.682960000e-37 -1.618830000e-37 -4.062680000e-37 -1.682960000e-37 -1.618830000e-37  4.685972014e-37  2.698070000e-01
 5.721560000e-37  7.705540000e-37  4.500000000e+01  5.721560000e-37  7.705540000e-37  2.788580000e-37  9.994387122e-37  2.870690000e-01
 2.850590000e+00  4.464118700e+01 -2.115710000e+00  2.850590000e+00 -3.588130000e-01 -2.115710000e+00  3.568030118e+00  5.132260000e-01
-4.500000000e+01  3.589600000e-37 -2.510880000e-37 -3.312220000e-38  3.589600000e-37 -2.510880000e-37  4.393114447e-37  3.482460000e-01
-3.141190000e-37 -5.706200000e-37 -5.500000000e+01 -3.141190000e-37 -5.706200000e-37 -4.942090000e-37  8.176310086e-37  1.354770000e-01
 3.232160000e-37  4.312490000e-37 -4.500000000e+01  3.232160000e-37  4.312490000e-37 -1.711080000e-37  5.654398556e-37  9.444500000e-02
 5.500000000e+01 -8.069700000e-37 -5.196110000e-37  4.864360000e-37 -8.069700000e-37 -5.196110000e-37  1.076018659e-36  1.301810000e-01
 4.500000000e+01  2.227390000e-37  1.123560000e-37  1.527570000e-37  2.227390000e-37  1.123560000e-37  2.925256124e-37  7.278380000e-02
-5.490000000e+01 -6.606620000e-37  3.320800000e+00 -3.973200000e-37 -6.606620000e-37 -3.447840000e-37  8.445196666e-37  2.631730000e-01
-5.459900000e+01 -5.386710000e-37  6.629500000e+00 -3.654290000e-37 -5.386710000e-37 -2.351590000e-37  6.921015500e-37  2.548960000e-01
-5.409900000e+01 -4.036850000e-37  9.914000000e+00 -3.140220000e-37 -4.036850000e-37 -1.263290000e-37  5.268115526e-37  2.450400000e-01
-5.340200000e+01 -2.633180000e-37  1.316200000e+01 -2.483940000e-37 -2.633180000e-37 -2.430310000e-38  3.628037886e-37  2.343150000e-01
-5.251000000e+01 -1.231690000e-37  1.636300000e+01 -1.723720000e-37 -1.231690000e-37  6.658710000e-38  2.220733006e-37  2.234760000e-01
-5.142600000e+01  0.000000000e+00  1.950300000e+01 -9.227530000e-38  0.000000000e+00  1.428270000e-37  1.700420034e-37  2.132790000e-01
-5.015400000e+01  1.295230000e-37  2.257300000e+01 -1.438630000e-38  1.295230000e-37  2.031020000e-37  2.413163806e-37  2.043920000e-01
-4.870000000e+01  2.303190000e-37  2.556000000e+01  5.503710000e-38  2.303190000e-37  2.476840000e-37  3.426708158e-37  1.973380000e-01
-4.706800000e+01  3.080920000e-37  2.845400000e+01  1.120300000e-37  3.080920000e-37  2.788150000e-37  4.303593912e-37  1.924710000e-01
-4.526400000e+01  3.592400000e-37  3.124400000e+01  1.540520000e-37  3.592400000e-37  2.998920000e-37  4.926668326e-37  1.899840000e-01
-4.329500000e+01  3.830800000e-37  3.392000000e+01  1.819040000e-37  3.830800000e-37  3.155680000e-37  5.286043078e-37  1.899820000e-01
-4.116800000e+01  3.806010000e-37  3.647200000e+01  1.961910000e-37  3.806010000e-37  3.293660000e-37  5.402129132e-37  1.926090000e-01
-3.889100000e+01  2.316850000e-37  3.889100000e+01 -2.172540000e-37  2.316850000e-37 -1.195960000e-37  3.393824435e-37  1.977350000e-01
-3.647200000e+01  2.999520000e-37  4.116800000e+01  1.942360000e-37  2.999520000e-37  3.547010000e-37  5.034993797e-37  2.049370000e-01
-3.392000000e+01  2.377800000e-37  4.329500000e+01  1.845370000e-37  2.377800000e-37  3.700090000e-37  4.769694884e-37  2.137730000e-01
-3.124400000e+01  1.680390000e-37  4.526400000e+01  1.692460000e-37  1.680390000e-37  3.866350000e-37  4.542773792e-37  2.237470000e-01
-2.845400000e+01  9.558800000e-38  4.706800000e+01  1.506310000e-37  9.558800000e-38  4.038350000e-37  4.414855277e-37  2.342490000e-01
-2.556000000e+01  2.359520000e-38  4.870000000e+01  1.304280000e-37  2.359520000e-38  4.215870000e-37  4.419318898e-37  2.445350000e-01
-2.257300000e+01 -4.466050000e-38  5.015400000e+01  1.113680000e-37 -4.466050000e-38  4.396120000e-37  4.556929912e-37  2.538840000e-01
-1.950300000e+01 -1.074560000e-37  5.142600000e+01  9.505460000e-38 -1.074560000e-37  4.578170000e-37  4.797692929e-37  2.616750000e-01
-1.636300000e+01 -1.627150000e-37  5.251000000e+01  8.372150000e-38 -1.627150000e-37  4.756600000e-37  5.096448728e-37  2.674200000e-01
-1.316200000e+01 -2.118710000e-37  5.340200000e+01  7.565830000e-38 -2.118710000e-37  4.943180000e-37  5.431056841e-37  2.707350000e-01
-9.914000000e+00 -2.531540000e-37  5.409900000e+01  7.428530000e-38 -2.531540000e-37  5.125070000e-37  5.764275137e-37  2.715060000e-01
-6.629500000e+00 -2.834880000e-37  5.459900000e+01  7.222810000e-38 -2.834880000e-37  5.293860000e-37  6.048403769e-37  2.701790000e-01
-3.320800000e+00 -2.760460000e-37  5.490000000e+01  5.201230000e-38 -2.760460000e-37  5.129970000e-37  5.848697252e-37  2.678340000e-01
 1.992920000e-01  3.270036800e+00  5.504415800e+01  1.992920000e-01 -5.076320000e-02  1.441580000e-01  2.511488258e-01  2.522580000e-01
 3.907890000e-01  6.552183400e+00  5.484874300e+01  3.907890000e-01 -7.731660000e-02  2.497430000e-01  4.701759939e-01  2.318460000e-01
 5.708600000e-01  9.851781000e+00  5.445032400e+01  5.708600000e-01 -6.221900000e-02  3.513240000e-01  6.731871185e-01  2.217930000e-01
 7.371410000e-01  1.314255160e+01  5.382580000e+01  7.371410000e-01 -1.944840000e-02  4.238000000e-01  8.505066338e-01  2.225880000e-01
 8.879390000e-01  1.640280630e+01  5.296034200e+01  8.879390000e-01  3.980630000e-02  4.503420000e-01  9.964076105e-01  2.284250000e-01
 1.021890000e+00  1.960397500e+01  5.184443800e+01  1.021890000e+00  1.009750000e-01  4.184380000e-01  1.108848719e+00  2.343620000e-01
 1.137800000e+00  2.272135000e+01  5.047556400e+01  1.137800000e+00  1.483500000e-01  3.215640000e-01  1.191637516e+00  2.365990000e-01
 1.234970000e+00  2.572614600e+01  4.885963900e+01  1.234970000e+00  1.661460000e-01  1.596390000e-01  1.256280225e+00  2.324950000e-01
 1.313250000e+00  2.859422800e+01  4.700711420e+01  1.313250000e+00  1.402280000e-01 -6.088580000e-02  1.322118200e+00  2.207490000e-01
 1.373400000e+00  3.130394630e+01  4.493695200e+01  1.373400000e+00  5.994630000e-02 -3.270480000e-01  1.413075197e+00  2.013740000e-01
 1.416910000e+00  3.384024080e+01  4.267428400e+01  1.416910000e+00 -7.975920000e-02 -6.207160000e-01  1.548962179e+00  1.759500000e-01
 1.446220000e+00  3.619501300e+01  4.024818500e+01  1.446220000e+00 -2.769870000e-01 -9.198150000e-01  1.736183666e+00  1.479900000e-01
 1.464060000e+00  3.836921500e+01  3.768956000e+01  1.464060000e+00 -5.217850000e-01 -1.201440000e+00  1.964481953e+00  1.232710000e-01
 1.474550000e+00  4.037140900e+01  3.502856000e+01  1.474550000e+00 -7.965910000e-01 -1.443440000e+00  2.211871144e+00  1.084880000e-01
 1.481540000e+00  4.221707000e+01  3.229086000e+01  1.481540000e+00 -1.077930000e+00 -1.629140000e+00  2.451732244e+00  1.062040000e-01
 1.488620000e+00  4.392443000e+01  2.949596000e+01  1.488620000e+00 -1.339570000e+00 -1.748040000e+00  2.658210137e+00  1.122810000e-01
 1.498630000e+00  4.551257000e+01  2.665519000e+01  1.498630000e+00 -1.555430000e+00 -1.798810000e+00  2.810866731e+00  1.200060000e-01
 1.513780000e+00  4.699569000e+01  2.377310000e+01  1.513780000e+00 -1.704310000e+00 -1.786900000e+00  2.896414003e+00  1.242980000e-01
 1.535060000e+00  4.838266000e+01  2.084700000e+01  1.535060000e+00 -1.771340000e+00 -1.726000000e+00  2.910864236e+00  1.226230000e-01
 1.562150000e+00  4.967480000e+01  1.787036000e+01  1.562150000e+00 -1.751200000e+00 -1.632640000e+00  2.858763270e+00  1.150190000e-01
 1.593830000e+00  5.086318000e+01  1.483629000e+01  1.593830000e+00 -1.646820000e+00 -1.526710000e+00  2.753752641e+00  1.038760000e-01
 1.627760000e+00  5.193216000e+01  1.173643000e+01  1.627760000e+00 -1.469840000e+00 -1.425570000e+00  2.615775615e+00  9.341040000e-02
 1.661350000e+00  5.286180000e+01  8.569520000e+00  1.661350000e+00 -1.237200000e+00 -1.344480000e+00  2.469488638e+00  8.884040000e-02
 1.691380000e+00  5.362942400e+01  5.336690000e+00  1.691380000e+00 -9.695760000e-01 -1.292810000e+00  2.339273738e+00  9.447590000e-02
 1.715210000e+00  5.421230600e+01  2.045460000e+00  1.715210000e+00 -6.876940000e-01 -1.275340000e+00  2.245297418e+00  1.104240000e-01
 8.136630000e-37 -2.058730000e-37  5.166700000e+01  8.136630000e-37 -2.058730000e-37  3.344230000e-37  9.034765700e-37  2.712000000e-01
 1.034530000e-36  3.630270000e-37  4.833300000e+01  1.034530000e-36  3.630270000e-37  1.542930000e-37  1.107179865e-36  2.826420000e-01
-1.609520000e+00  5.408939100e+01 -1.276990000e+00  1.711280000e+00 -8.106090000e-01 -1.276990000e+00  2.283915421e+00  1.019990000e-01
-4.888620000e+00  5.332663000e+01 -1.249570000e+00  1.740880000e+00 -1.272370000e+00 -1.249570000e+00  2.492190558e+00  8.664830000e-02
-8.081730000e+00  5.232035000e+01 -1.210750000e+00  1.832270000e+00 -1.778650000e+00 -1.210750000e+00  2.826079393e+00  1.052060000e-01
-1.116789000e+01  5.109830000e+01 -1.162640000e+00  1.994110000e+00 -2.303700000e+00 -1.162640000e+00  3.261171592e+00  1.571260000e-01
-1.413481000e+01  4.969737000e+01 -1.108760000e+00  2.228190000e+00 -2.812630000e+00 -1.108760000e+00  3.755671302e+00  2.265280000e-01
-1.697862000e+01  4.815988000e+01 -1.052440000e+00  2.524380000e+00 -3.266120000e+00 -1.052440000e+00  4.260007534e+00  2.998580000e-01
-1.971011000e+01  4.653261000e+01 -9.980090000e-01  2.862890000e+00 -3.621390000e+00 -9.980090000e-01  4.722989165e+00  3.680460000e-01
-2.234979000e+01  4.486000000e+01 -9.497190000e-01  3.210210000e+00 -3.840000000e+00 -9.497190000e-01  5.094410115e+00  4.236740000e-01
-2.492705000e+01  4.317635000e+01 -9.112330000e-01  3.526950000e+00 -3.891650000e+00 -9.112330000e-01  5.330540461e+00  4.607230000e-01
-2.747659000e+01  4.150119000e+01 -8.858840000e-01  3.767410000e+00 -3.762810000e+00 -8.858840000e-01  5.397861397e+00  4.747510000e-01
-3.002769000e+01  3.983469000e+01 -8.741280000e-01  3.892310000e+00 -3.460310000e+00 -8.741280000e-01  5.280901646e+00  4.631960000e-01
-3.259925000e+01  3.815448000e+01 -8.754630000e-01  3.872750000e+00 -3.013520000e+00 -8.754630000e-01  4.984569271e+00  4.259430000e-01
-3.519296000e+01  3.642075000e+01 -8.862490000e-01  3.698040000e+00 -2.470250000e+00 -8.862490000e-01  4.534652379e+00  3.658250000e-01
-3.779124000e+01  3.458477000e+01 -9.017700000e-01  3.376760000e+00 -1.887230000e+00 -9.017700000e-01  3.972069272e+00  2.906720000e-01
-4.036003000e+01  3.259872000e+01 -9.173470000e-01  2.934970000e+00 -1.321280000e+00 -9.173470000e-01  3.346842580e+00  2.138290000e-01
-4.285198000e+01  3.042447200e+01 -9.280870000e-01  2.412020000e+00 -8.195280000e-01 -9.280870000e-01  2.711238113e+00  1.555280000e-01
-4.521491000e+01  2.803898500e+01 -9.291410000e-01  1.853090000e+00 -4.150150000e-01 -9.291410000e-01  2.114115180e+00  1.370850000e-01
-4.739519000e+01  2.543678200e+01 -9.152920000e-01  1.304810000e+00 -1.232180000e-01 -9.152920000e-01  1.598584141e+00  1.570220000e-01
-4.934587700e+01  2.262973870e+01 -8.822120000e-01  8.081230000e-01  5.673870000e-02 -8.822120000e-01  1.197739569e+00  1.903350000e-01
-5.103083700e+01  1.964200100e+01 -8.264940000e-01  3.951630000e-01  1.390010000e-01 -8.264940000e-01  9.265891250e-01  2.165940000e-01
-5.242425540e+01  1.651005200e+01 -7.460840000e-01  8.574460000e-02  1.470520000e-01 -7.460840000e-01  7.652566643e-01  2.295940000e-01
-5.351497900e+01  1.327063700e+01 -6.400850000e-01 -1.129790000e-01  1.086370000e-01 -6.400850000e-01  6.589954927e-01  2.307370000e-01
-5.430577500e+01  9.966514600e+00 -5.088300000e-01 -2.067750000e-01  5.251460000e-02 -5.088300000e-01  5.517441914e-01  2.267180000e-01
-5.480817100e+01  6.630547630e+00 -3.542610000e-01 -2.091710000e-01  1.047630000e-03 -3.542610000e-01  4.114054702e-01  2.274750000e-01
-5.504455000e+01  3.301512100e+00 -1.812030000e-01 -1.445500000e-01 -1.928790000e-02 -1.812030000e-01  2.325967601e-01  2.500650000e-01
 2.454890000e+00  4.804180300e+01 -1.824830000e+00  2.454890000e+00 -2.911970000e-01 -1.824830000e+00  3.072667430e+00  3.722610000e-01
 2.084700000e+00  5.134734200e+01 -1.552710000e+00  2.084700000e+00 -3.196580000e-01 -1.552710000e+00  2.618981419e+00  1.814350000e-01
-5.166700000e+01 -3.969440000e-37 -9.885400000e-37 -9.124550000e-37 -3.969440000e-37 -9.885400000e-37  1.402622543e-36  2.978570000e-01
-4.833300000e+01 -7.524150000e-38 -1.018120000e-36 -5.696060000e-37 -7.524150000e-38 -1.018120000e-36  1.169051159e-36  3.370760000e-01
 1.910910000e-01  2.753484300e+00  4.502469700e+01  1.910910000e-01  3.648430000e-02  1.066970000e-01  2.218808785e-01  2.883380000e-01
 3.785700000e-01  5.479824100e+00  4.487458700e+01  3.785700000e-01  5.562410000e-02  2.025870000e-01  4.329558615e-01  3.040030000e-01
 5.687900000e-01  8.159284800e+00  4.457030300e+01  5.687900000e-01  4.778480000e-02  3.073030000e-01  6.482596586e-01  3.385600000e-01
 7.704110000e-01  1.078288320e+01  4.409333900e+01  7.704110000e-01  1.388320000e-02  4.013390000e-01  8.687916005e-01  3.814960000e-01
 9.848310000e-01  1.334540350e+01  4.343205000e+01  9.848310000e-01 -4.259650000e-02  4.700500000e-01  1.092086793e+00  4.275720000e-01
 1.213970000e+00  1.583528800e+01  4.258110900e+01  1.213970000e+00 -1.217120000e-01  5.051090000e-01  1.320481758e+00  4.729860000e-01
 1.458160000e+00  1.824499700e+01  4.153557000e+01  1.458160000e+00 -2.240030000e-01  5.005700000e-01  1.557876200e+00  5.149620000e-01
 1.717010000e+00  2.056319100e+01  4.029942700e+01  1.717010000e+00 -3.498090000e-01  4.534270000e-01  1.809996055e+00  5.516050000e-01
 1.988900000e+00  2.278167800e+01  3.887325400e+01  1.988900000e+00 -4.983220000e-01  3.632540000e-01  2.082306772e+00  5.815000000e-01
 2.270910000e+00  2.489618200e+01  3.726603600e+01  2.270910000e+00 -6.668180000e-01  2.320360000e-01  2.378133549e+00  6.036830000e-01
 2.558270000e+00  2.690199700e+01  3.548682840e+01  2.558270000e+00 -8.500030000e-01  6.382840000e-02  2.696539367e+00  6.177040000e-01
 2.844020000e+00  2.880112000e+01  3.354745800e+01  2.844020000e+00 -1.039880000e+00 -1.355420000e-01  3.031199731e+00  6.239600000e-01
 3.119150000e+00  3.059411000e+01  3.146130600e+01  3.119150000e+00 -1.225890000e+00 -3.586940000e-01  3.370543636e+00  6.231030000e-01
 3.372440000e+00  3.228701000e+01  2.924384100e+01  3.372440000e+00 -1.395990000e+00 -5.971590000e-01  3.698477863e+00  6.162430000e-01
 3.592020000e+00  3.388511000e+01  2.691056000e+01  3.592020000e+00 -1.537890000e+00 -8.414400000e-01  3.996965675e+00  6.059060000e-01
 3.766870000e+00  3.539351000e+01  2.448104000e+01  3.766870000e+00 -1.640490000e+00 -1.081960000e+00  4.248665023e+00  5.946150000e-01
 3.888280000e+00  3.681437000e+01  2.197073000e+01  3.888280000e+00 -1.695630000e+00 -1.309270000e+00  4.439377252e+00  5.839070000e-01
 3.950880000e+00  3.814746000e+01  1.939804000e+01  3.950880000e+00 -1.698540000e+00 -1.514960000e+00  4.559560802e+00  5.747840000e-01
 3.953510000e+00  3.938666000e+01  1.677647000e+01  3.953510000e+00 -1.648340000e+00 -1.692530000e+00  4.605640442e+00  5.676540000e-01
 3.899240000e+00  4.052812000e+01  1.411902000e+01  3.899240000e+00 -1.547880000e+00 -1.837980000e+00  4.580193833e+00  5.623140000e-01
 3.794690000e+00  4.155872000e+01  1.143796000e+01  3.794690000e+00 -1.403280000e+00 -1.950040000e+00  4.491271864e+00  5.580780000e-01
 3.648870000e+00  4.246878000e+01  8.738790000e+00  3.648870000e+00 -1.223220000e+00 -2.030210000e+00  4.351123084e+00  5.538780000e-01
 3.471900000e+00  4.324504000e+01  6.029530000e+00  3.471900000e+00 -1.017960000e+00 -2.081970000e+00  4.174318058e+00  5.484310000e-01
 3.273980000e+00  4.387353400e+01  3.314110000e+00  3.273980000e+00 -7.984660000e-01 -2.110090000e+00  3.976049899e+00  5.403160000e-01
 3.064370000e+00  4.434238600e+01  5.972500000e-01  3.064370000e+00 -5.756140000e-01 -2.119750000e+00  3.770283151e+00  5.282370000e-01
-2.717000000e+00 -1.816380000e-37  4.491800000e+01  2.016790000e-37 -1.816380000e-37  2.320330000e-37  3.570799563e-37  3.011150000e-01
-5.424200000e+00 -2.736830000e-37  4.467200000e+01  2.781390000e-37 -2.736830000e-37  2.002130000e-37  4.385760290e-37  3.133750000e-01
-8.111500000e+00 -3.745500000e-37  4.426300000e+01  3.902190000e-37 -3.745500000e-37  1.845000000e-37  5.714882505e-37  3.251290000e-01
-1.076900000e+01 -5.004010000e-37  4.369200000e+01  5.155020000e-37 -5.004010000e-37  1.793670000e-37  7.404836214e-37  3.357010000e-01
-1.338800000e+01 -6.493560000e-37  4.296200000e+01  6.460750000e-37 -6.493560000e-37  1.829160000e-37  9.340954895e-37  3.446720000e-01
-1.595700000e+01 -8.156890000e-37  4.207600000e+01  7.771210000e-37 -8.156890000e-37  1.949010000e-37  1.143351212e-36  3.517260000e-01
-1.846900000e+01 -9.920620000e-37  4.103500000e+01  9.030880000e-37 -9.920620000e-37  2.157940000e-37  1.358794318e-36  3.564760000e-01
-2.091300000e+01 -1.170680000e-36  3.984600000e+01  1.017620000e-36 -1.170680000e-36  2.453270000e-37  1.570422702e-36  3.586190000e-01
-2.328000000e+01 -1.343250000e-36  3.851000000e+01  1.113770000e-36 -1.343250000e-36  2.821640000e-37  1.767603094e-36  3.580000000e-01
-2.556300000e+01 -1.501630000e-36  3.703400000e+01  1.185530000e-36 -1.501630000e-36  3.234960000e-37  1.940366898e-36  3.547220000e-01
-2.775200000e+01 -1.636530000e-36  3.542300000e+01  1.228740000e-36 -1.636530000e-36  3.649580000e-37  2.078756063e-36  3.492500000e-01
-2.984100000e+01 -1.740860000e-36  3.368300000e+01  1.247900000e-36 -1.740860000e-36  4.026630000e-37  2.179446132e-36  3.426130000e-01
-3.182000000e+01 -1.804580000e-36  3.182000000e+01  1.250230000e-36 -1.804580000e-36  4.345490000e-37  2.237949254e-36  3.362310000e-01
-3.368300000e+01 -1.815170000e-36  2.984100000e+01  1.238280000e-36 -1.815170000e-36  4.638480000e-37  2.245736951e-36  3.316280000e-01
-3.542300000e+01 -1.770370000e-36  2.775200000e+01  1.205410000e-36 -1.770370000e-36  4.851590000e-37  2.196042454e-36  3.300210000e-01
-3.703400000e+01 -1.668110000e-36  2.556300000e+01  1.146350000e-36 -1.668110000e-36  4.951250000e-37  2.083712567e-36  3.317340000e-01
-3.851000000e+01 -1.515250000e-36  2.328000000e+01  1.060280000e-36 -1.515250000e-36  4.905890000e-37  1.913335780e-36  3.362760000e-01
-3.984600000e+01 -1.322010000e-36  2.091300000e+01  9.496160000e-37 -1.322010000e-36  4.686770000e-37  1.693853334e-36  3.426610000e-01
-4.103500000e+01 -1.100750000e-36  1.846900000e+01  8.197040000e-37 -1.100750000e-36  4.275960000e-37  1.437499061e-36  3.496620000e-01
-4.207600000e+01 -8.641360000e-37  1.595700000e+01  6.774970000e-37 -8.641360000e-37  3.669890000e-37  1.157762557e-36  3.560620000e-01
-4.296200000e+01 -6.243140000e-37  1.338800000e+01  5.309840000e-37 -6.243140000e-37  2.882310000e-37  8.687859853e-37  3.608640000e-01
-4.369200000e+01 -3.914570000e-37  1.076900000e+01  3.878660000e-37 -3.914570000e-37  1.940210000e-37  5.842283503e-37  3.634050000e-01
-4.426300000e+01 -1.736410000e-37  8.111500000e+00  2.553950000e-37 -1.736410000e-37  8.853150000e-38  3.212718933e-37  3.633530000e-01
-4.467200000e+01  2.455400000e-38  5.424200000e+00  1.383720000e-37  2.455400000e-38 -2.390420000e-38  1.425521662e-37  3.606840000e-01
-4.491800000e+01  2.003490000e-37  2.717000000e+00  4.115260000e-38  2.003490000e-37 -1.377820000e-37  2.466113092e-37  3.555390000e-01
-4.498290420e+01  2.691425400e+00 -2.338480000e-01 -6.490420000e-02 -2.557460000e-02 -2.338480000e-01  2.440317652e-01  3.729510000e-01
-4.482153700e+01  5.315534000e+00 -4.512430000e-01 -1.495370000e-01 -1.086660000e-01 -4.512430000e-01  4.876370156e-01  4.304570000e-01
-4.446243900e+01  7.875561000e+00 -6.743870000e-01 -1.994390000e-01 -2.359390000e-01 -6.743870000e-01  7.417822809e-01  4.983600000e-01
-4.389187800e+01  1.035834500e+01 -9.145730000e-01 -1.998780000e-01 -4.106550000e-01 -9.145730000e-01  1.022268319e+00  5.655350000e-01
-4.309976500e+01  1.275679800e+01 -1.176150000e+00 -1.377650000e-01 -6.312020000e-01 -1.176150000e+00  1.341910572e+00  6.246630000e-01
-4.208464184e+01  1.505814900e+01 -1.461940000e+00 -8.641840000e-03 -8.988510000e-01 -1.461940000e+00  1.716180750e+00  6.718480000e-01
-4.084647200e+01  1.725587000e+01 -1.772990000e+00  1.885280000e-01 -1.213130000e+00 -1.772990000e+00  2.156552977e+00  7.042280000e-01
-3.939565500e+01  1.934298000e+01 -2.108590000e+00  4.503450000e-01 -1.570020000e+00 -2.108590000e+00  2.667194258e+00  7.204340000e-01
-3.774037100e+01  2.132008000e+01 -2.465460000e+00  7.696290000e-01 -1.959920000e+00 -2.465460000e+00  3.242238149e+00  7.206610000e-01
-3.589778000e+01  2.319678000e+01 -2.836440000e+00  1.136220000e+00 -2.366220000e+00 -2.836440000e+00  3.864632563e+00  7.070280000e-01
-3.388582000e+01  2.498685000e+01 -3.209160000e+00  1.537180000e+00 -2.765150000e+00 -3.209160000e+00  4.506404862e+00  6.835720000e-01
-3.172602000e+01  2.671316000e+01 -3.565280000e+00  1.956980000e+00 -3.127840000e+00 -3.565280000e+00  5.130728532e+00  6.557420000e-01
-2.944252000e+01  2.839664000e+01 -3.881110000e+00  2.377480000e+00 -3.423360000e+00 -3.881110000e+00  5.695157563e+00  6.286500000e-01
-2.706350000e+01  3.005826000e+01 -4.131170000e+00  2.777500000e+00 -3.624740000e+00 -4.131170000e+00  6.157906453e+00  6.055030000e-01
-2.461775000e+01  3.170928000e+01 -4.291760000e+00  3.134250000e+00 -3.713720000e+00 -4.291760000e+00  6.483397504e+00  5.869440000e-01
-2.213750000e+01  3.334976000e+01 -4.348930000e+00  3.425500000e+00 -3.684240000e+00 -4.348930000e+00  6.649877200e+00  5.716900000e-01
-1.964592000e+01  3.496721000e+01 -4.302330000e+00  3.634080000e+00 -3.542790000e+00 -4.302330000e+00  6.653415804e+00  5.589110000e-01
-1.716130000e+01  3.654149000e+01 -4.164020000e+00  3.751700000e+00 -3.304510000e+00 -4.164020000e+00  6.506466152e+00  5.494370000e-01
-1.468810000e+01  3.804546000e+01 -3.955040000e+00  3.780900000e+00 -2.989540000e+00 -3.955040000e+00  6.234973586e+00  5.447730000e-01
-1.222242000e+01  3.945551000e+01 -3.699680000e+00  3.734580000e+00 -2.620490000e+00 -3.699680000e+00  5.873813729e+00  5.452150000e-01
-9.757550000e+00  4.074253000e+01 -3.420050000e+00  3.630450000e+00 -2.219470000e+00 -3.420050000e+00  5.459208394e+00  5.489880000e-01
-7.280110000e+00  4.188483000e+01 -3.134050000e+00  3.488890000e+00 -1.807170000e+00 -3.134050000e+00  5.025981122e+00  5.528550000e-01
-4.783490000e+00  4.286137000e+01 -2.854110000e+00  3.328010000e+00 -1.401630000e+00 -2.854110000e+00  4.602842720e+00  5.532120000e-01
-2.262170000e+00  4.365398000e+01 -2.588380000e+00  3.162030000e+00 -1.018020000e+00 -2.588380000e+00  4.211236097e+00  5.472490000e-01
 2.838900000e-01  4.425016200e+01 -2.341550000e+00  3.000890000e+00 -6.678380000e-01 -2.341550000e+00  3.864479886e+00  5.332250000e-01
 1.734770000e+00  5.474256900e+01 -4.657930000e+00  1.734770000e+00 -1.574310000e-01 -1.337130000e+00  2.195934450e+00  1.521890000e-01
 1.727500000e+00  5.466200030e+01 -8.033220000e+00  1.727500000e+00  6.300030000e-02 -1.403720000e+00  2.226803792e+00  1.699920000e-01
 1.708020000e+00  5.434177600e+01 -1.139672000e+01  1.708020000e+00  2.427760000e-01 -1.482720000e+00  2.274803531e+00  1.840650000e-01
 1.676450000e+00  5.378065000e+01 -1.472697000e+01  1.676450000e+00  3.786500000e-01 -1.564970000e+00  2.324433592e+00  1.936040000e-01
 1.633510000e+00  5.298106500e+01 -1.800503000e+01  1.633510000e+00  4.710650000e-01 -1.642030000e+00  2.363581959e+00  1.987930000e-01
 1.580330000e+00  5.194926000e+01 -2.121005000e+01  1.580330000e+00  5.232600000e-01 -1.707050000e+00  2.384379089e+00  2.001400000e-01
 1.518290000e+00  5.069421600e+01 -2.432797000e+01  1.518290000e+00  5.402160000e-01 -1.754970000e+00  2.382636681e+00  1.982910000e-01
 1.448900000e+00  4.922783100e+01 -2.734257000e+01  1.448900000e+00  5.278310000e-01 -1.782570000e+00  2.357005002e+00  1.939150000e-01
 1.373640000e+00  4.756022500e+01 -3.024224000e+01  1.373640000e+00  4.922250000e-01 -1.788240000e+00  2.308023960e+00  1.876280000e-01
 1.293950000e+00  4.570326600e+01 -3.301572000e+01  1.293950000e+00  4.392660000e-01 -1.771720000e+00  2.237465749e+00  1.799640000e-01
 1.211080000e+00  4.366926400e+01 -3.565371000e+01  1.211080000e+00  3.742640000e-01 -1.733710000e+00  2.147682163e+00  1.713860000e-01
 1.126080000e+00  4.146985700e+01 -3.814755000e+01  1.126080000e+00  3.018570000e-01 -1.675550000e+00  2.041235317e+00  1.623170000e-01
 1.039770000e+00  3.911697100e+01 -4.048997000e+01  1.039770000e+00  2.259710000e-01 -1.598970000e+00  1.920648226e+00  1.530690000e-01
 9.528490000e-01  3.662189600e+01 -4.267399000e+01  9.528490000e-01  1.498960000e-01 -1.505990000e+00  1.788405968e+00  1.438920000e-01
 8.659630000e-01  3.399631680e+01 -4.469358000e+01  8.659630000e-01  7.631680000e-02 -1.398580000e+00  1.646736830e+00  1.350980000e-01
 7.795100000e-01  3.125161394e+01 -4.654276000e+01  7.795100000e-01  7.613940000e-03 -1.278760000e+00  1.497638458e+00  1.269710000e-01
 6.938780000e-01  2.839985920e+01 -4.821659000e+01  6.938780000e-01 -5.414080000e-02 -1.148590000e+00  1.343002939e+00  1.198030000e-01
 6.093870000e-01  2.545300600e+01 -4.971027000e+01  6.093870000e-01 -1.069940000e-01 -1.010270000e+00  1.184671138e+00  1.140100000e-01
 5.263070000e-01  2.242400100e+01 -5.102024500e+01  5.263070000e-01 -1.489990000e-01 -8.662450000e-01  1.024490195e+00  1.101380000e-01
 4.448520000e-01  1.932485700e+01 -5.214547200e+01  4.448520000e-01 -1.781430000e-01 -7.194720000e-01  8.644467532e-01  1.088440000e-01
 3.652350000e-01  1.617065700e+01 -5.308365500e+01  3.652350000e-01 -1.923430000e-01 -5.736550000e-01  7.067336796e-01  1.107900000e-01
 2.875570000e-01  1.297243400e+01 -5.383555200e+01  2.875570000e-01 -1.895660000e-01 -4.335520000e-01  5.537071729e-01  1.166690000e-01
 2.120720000e-01  9.746175000e+00 -5.440420400e+01  2.120720000e-01 -1.678250000e-01 -3.052040000e-01  4.077857837e-01  1.261560000e-01
 1.387670000e-01  6.502552000e+00 -5.479393200e+01  1.387670000e-01 -1.269480000e-01 -1.949320000e-01  2.708700050e-01  1.438140000e-01
 6.848920000e-02  3.258937000e+00 -5.501412500e+01  6.848920000e-02 -6.186300000e-02 -1.141250000e-01  1.467730115e-01  1.457410000e-01
-3.320800000e+00 -7.321110000e-37 -5.490000000e+01  5.649500000e-37 -7.321110000e-37 -5.136220000e-37  1.057810275e-36  1.378350000e-01
-6.629500000e+00 -6.895200000e-37 -5.459900000e+01  5.160630000e-37 -6.895200000e-37 -5.118630000e-37  1.001879524e-36  1.397970000e-01
-9.914000000e+00 -6.889820000e-37 -5.409900000e+01  4.714170000e-37 -6.889820000e-37 -5.160160000e-37  9.814289055e-37  1.427040000e-01
-1.316200000e+01 -7.036370000e-37 -5.340200000e+01  4.354310000e-37 -7.036370000e-37 -5.275120000e-37  9.813124343e-37  1.465900000e-01
-1.636300000e+01 -7.220100000e-37 -5.251000000e+01  4.040530000e-37 -7.220100000e-37 -5.426820000e-37  9.894751235e-37  1.510490000e-01
-1.950300000e+01 -7.404240000e-37 -5.142600000e+01  3.746280000e-37 -7.404240000e-37 -5.593030000e-37  1.000696599e-36  1.560560000e-01
-2.257300000e+01 -7.582830000e-37 -5.015400000e+01  3.459330000e-37 -7.582830000e-37 -5.765760000e-37  1.013460721e-36  1.616430000e-01
-2.556000000e+01 -7.757180000e-37 -4.870000000e+01  3.171890000e-37 -7.757180000e-37 -5.941240000e-37  1.027292852e-36  1.678500000e-01
-2.845400000e+01 -7.930750000e-37 -4.706800000e+01  2.878070000e-37 -7.930750000e-37 -6.119600000e-37  1.042255183e-36  1.746980000e-01
-3.124400000e+01 -8.109600000e-37 -4.526400000e+01  2.574730000e-37 -8.109600000e-37 -6.305930000e-37  1.059054295e-36  1.821790000e-01
-3.392000000e+01 -8.306300000e-37 -4.329500000e+01  2.262130000e-37 -8.306300000e-37 -6.512160000e-37  1.079444671e-36  1.902460000e-01
-3.647200000e+01 -8.533970000e-37 -4.116800000e+01  1.937760000e-37 -8.533970000e-37 -6.747040000e-37  1.105016319e-36  1.988390000e-01
-3.889100000e+01 -8.795210000e-37 -3.889100000e+01  1.590240000e-37 -8.795210000e-37 -7.008460000e-37  1.135795289e-36  2.078480000e-01
-4.116800000e+01 -9.089030000e-37 -3.647200000e+01  1.208120000e-37 -9.089030000e-37 -7.300010000e-37  1.172007535e-36  2.171340000e-01
-4.329500000e+01 -9.389410000e-37 -3.392000000e+01  7.827210000e-38 -9.389410000e-37 -7.601600000e-37  1.210611395e-36  2.265180000e-01
-4.526400000e+01 -9.690450000e-37 -3.124400000e+01  3.130990000e-38 -9.690450000e-37 -7.885280000e-37  1.249721941e-36  2.357720000e-01
-4.706800000e+01 -9.967850000e-37 -2.845400000e+01 -2.046530000e-38 -9.967850000e-37 -8.117190000e-37  1.285646491e-36  2.447140000e-01
-4.870000000e+01 -1.019840000e-36 -2.556000000e+01 -7.647560000e-38 -1.019840000e-36 -8.268170000e-37  1.315122996e-36  2.531510000e-01
-5.015400000e+01 -1.036030000e-36 -2.257300000e+01 -1.353860000e-37 -1.036030000e-36 -8.313990000e-37  1.335257214e-36  2.608400000e-01
-5.142600000e+01 -1.043150000e-36 -1.950300000e+01 -1.952570000e-37 -1.043150000e-36 -8.233750000e-37  1.343217633e-36  2.675030000e-01
-5.251000000e+01 -1.038770000e-36 -1.636300000e+01 -2.536250000e-37 -1.038770000e-36 -8.008840000e-37  1.335958059e-36  2.728410000e-01
-5.340200000e+01 -1.020490000e-36 -1.316200000e+01 -3.075950000e-37 -1.020490000e-36 -7.625890000e-37  1.310555801e-36  2.765510000e-01
-5.409900000e+01 -9.862050000e-37 -9.914000000e+00 -3.537710000e-37 -9.862050000e-37 -7.078860000e-37  1.264459098e-36  2.783660000e-01
-5.459900000e+01 -9.345690000e-37 -6.629500000e+00 -3.892150000e-37 -9.345690000e-37 -6.375100000e-37  1.196380597e-36  2.780290000e-01
-5.490000000e+01 -8.621470000e-37 -3.320800000e+00 -4.080720000e-37 -8.621470000e-37 -5.508540000e-37  1.101480974e-36  2.750350000e-01
-1.532960000e-38 -5.416990000e-37 -5.166700000e+01 -1.532960000e-38 -5.416990000e-37 -1.383730000e-38  5.420924959e-37  1.137210000e-01
 4.556190000e-37  1.351370000e-37 -4.833300000e+01  4.556190000e-37  1.351370000e-37  9.324300000e-38  4.842983987e-37  9.320520000e-02
 2.638390000e+00  4.476242800e+01 -4.818570000e+00  2.638390000e+00 -1.555720000e-01 -2.101570000e+00  3.376670091e+00  4.963970000e-01
 2.432390000e+00  4.469885780e+01 -7.503870000e+00  2.432390000e+00  2.685780000e-02 -2.079670000e+00  3.200354631e+00  4.761490000e-01
 2.235620000e+00  4.444725900e+01 -1.016300000e+01  2.235620000e+00  1.842590000e-01 -2.051500000e+00  3.039835590e+00  4.518810000e-01
 2.049980000e+00  4.400640400e+01 -1.278665000e+01  2.049980000e+00  3.144040000e-01 -2.017650000e+00  2.893471859e+00  4.247910000e-01
 1.876430000e+00  4.337875100e+01 -1.536600000e+01  1.876430000e+00  4.167510000e-01 -1.978000000e+00  2.758107130e+00  3.960230000e-01
 1.715270000e+00  4.256813100e+01 -1.788908000e+01  1.715270000e+00  4.921310000e-01 -1.932080000e+00  2.630071714e+00  3.665460000e-01
 1.566290000e+00  4.157749100e+01 -2.034828000e+01  1.566290000e+00  5.424910000e-01 -1.879280000e+00  2.505844003e+00  3.372240000e-01
 1.428970000e+00  4.041653800e+01 -2.273205000e+01  1.428970000e+00  5.705380000e-01 -1.819050000e+00  2.382522145e+00  3.087540000e-01
 1.302550000e+00  3.908942600e+01 -2.503098000e+01  1.302550000e+00  5.794260000e-01 -1.750980000e+00  2.257941973e+00  2.816630000e-01
 1.186090000e+00  3.760649900e+01 -2.723780000e+01  1.186090000e+00  5.724990000e-01 -1.674800000e+00  2.130614849e+00  2.562940000e-01
 1.078570000e+00  3.597605700e+01 -2.934247000e+01  1.078570000e+00  5.530570000e-01 -1.590470000e+00  1.999695005e+00  2.328200000e-01
 9.789890000e-01  3.420719700e+01 -3.133913000e+01  9.789890000e-01  5.241970000e-01 -1.498130000e+00  1.864831213e+00  2.112990000e-01
 8.863740000e-01  3.230874300e+01 -3.321814000e+01  8.863740000e-01  4.887430000e-01 -1.398140000e+00  1.726071855e+00  1.916470000e-01
 7.998520000e-01  3.029017400e+01 -3.497405000e+01  7.998520000e-01  4.491740000e-01 -1.291050000e+00  1.583771008e+00  1.738060000e-01
 7.184760000e-01  2.815959500e+01 -3.660053000e+01  7.184760000e-01  4.075950000e-01 -1.177530000e+00  1.438373508e+00  1.577030000e-01
 6.414400000e-01  2.592870200e+01 -3.809247000e+01  6.414400000e-01  3.657020000e-01 -1.058470000e+00  1.290558781e+00  1.432080000e-01
 5.679710000e-01  2.360479600e+01 -3.944492000e+01  5.679710000e-01  3.247960000e-01 -9.349200000e-01  1.141121775e+00  1.302480000e-01
 4.974160000e-01  2.119878000e+01 -4.065417700e+01  4.974160000e-01  2.857800000e-01 -8.081770000e-01  9.910817064e-01  1.187500000e-01
 4.292510000e-01  1.871815400e+01 -4.171490000e+01  4.292510000e-01  2.491540000e-01 -6.799000000e-01  8.417827194e-01  1.087320000e-01
 3.630620000e-01  1.617200300e+01 -4.262820000e+01  3.630620000e-01  2.150030000e-01 -5.522000000e-01  6.949569381e-01  1.003500000e-01
 2.985810000e-01  1.357093300e+01 -4.338974100e+01  2.985810000e-01  1.829330000e-01 -4.277410000e-01  5.527906106e-01  9.396900000e-02
 2.356350000e-01  1.092094600e+01 -4.400203700e+01  2.356350000e-01  1.519460000e-01 -3.100370000e-01  4.180124179e-01  9.025150000e-02
 1.742330000e-01  8.231846000e+00 -4.446593500e+01  1.742330000e-01  1.203460000e-01 -2.029350000e-01  2.932966284e-01  9.054680000e-02
 1.143010000e-01  5.507807400e+00 -4.478597700e+01  1.143010000e-01  8.360740000e-02 -1.139770000e-01  1.817846871e-01  9.723250000e-02
 5.603530000e-02  2.756807200e+00 -4.497377270e+01  5.603530000e-02  3.980720000e-02 -5.577270000e-02  8.851645092e-02  9.849020000e-02
-2.717000000e+00  1.459910000e-37 -4.491800000e+01 -1.792580000e-37  1.459910000e-37 -1.757850000e-37  2.904258406e-37  1.003950000e-01
-5.424200000e+00  1.302940000e-37 -4.467200000e+01 -1.942260000e-37  1.302940000e-37 -1.632650000e-37  2.852292512e-37  1.058140000e-01
-8.111500000e+00  1.377720000e-37 -4.426300000e+01 -1.928850000e-37  1.377720000e-37 -1.525900000e-37  2.819032730e-37  1.111580000e-01
-1.076900000e+01  1.521640000e-37 -4.369200000e+01 -1.905000000e-37  1.521640000e-37 -1.451310000e-37  2.837378016e-37  1.168810000e-01
-1.338800000e+01  1.683170000e-37 -4.296200000e+01 -1.898410000e-37  1.683170000e-37 -1.401390000e-37  2.898433320e-37  1.229110000e-01
-1.595700000e+01  1.847980000e-37 -4.207600000e+01 -1.911230000e-37  1.847980000e-37 -1.365540000e-37  2.988733793e-37  1.293010000e-01
-1.846900000e+01  2.014260000e-37 -4.103500000e+01 -1.938520000e-37  2.014260000e-37 -1.339360000e-37  3.099836826e-37  1.361190000e-01
-2.091300000e+01  2.183120000e-37 -3.984600000e+01 -1.974760000e-37  2.183120000e-37 -1.320960000e-37  3.226550064e-37  1.434340000e-01
-2.328000000e+01  2.354900000e-37 -3.851000000e+01 -2.014870000e-37  2.354900000e-37 -1.310940000e-37  3.365088232e-37  1.513050000e-01
-2.556300000e+01  2.526220000e-37 -3.703400000e+01 -2.058880000e-37  2.526220000e-37 -1.311250000e-37  3.512855093e-37  1.597770000e-01
-2.775200000e+01  2.684730000e-37 -3.542300000e+01 -2.110360000e-37  2.684730000e-37 -1.322780000e-37  3.662122531e-37  1.688900000e-01
-2.984100000e+01  2.817370000e-37 -3.368300000e+01 -2.174590000e-37  2.817370000e-37 -1.345340000e-37  3.804780559e-37  1.786540000e-01
-3.182000000e+01  2.920880000e-37 -3.182000000e+01 -2.249060000e-37  2.920880000e-37 -1.382760000e-37  3.937237112e-37  1.890780000e-01
-3.368300000e+01  6.810280000e-37 -2.984100000e+01  1.490060000e-37  6.810280000e-37 -5.507960000e-37  8.884695597e-37  2.001360000e-01
-3.542300000e+01  6.994330000e-37 -2.775200000e+01  1.182780000e-37  6.994330000e-37 -5.787530000e-37  9.155060031e-37  2.118070000e-01
-3.703400000e+01  7.193460000e-37 -2.556300000e+01  8.527340000e-38  7.193460000e-37 -6.064810000e-37  9.447483389e-37  2.240950000e-01
-3.851000000e+01  7.375410000e-37 -2.328000000e+01  4.979580000e-38  7.375410000e-37 -6.305420000e-37  9.716118372e-37  2.369240000e-01
-3.984600000e+01  7.505250000e-37 -2.091300000e+01  1.277180000e-38  7.505250000e-37 -6.467730000e-37  9.908411619e-37  2.501780000e-01
-4.103500000e+01  7.553580000e-37 -1.846900000e+01 -2.404060000e-38  7.553580000e-37 -6.519860000e-37  9.981129209e-37  2.637150000e-01
-4.207600000e+01  7.493650000e-37 -1.595700000e+01 -5.828880000e-38  7.493650000e-37 -6.436710000e-37  9.895745771e-37  2.773630000e-01
-4.296200000e+01  7.298800000e-37 -1.338800000e+01 -8.701720000e-38  7.298800000e-37 -6.198140000e-37  9.614916547e-37  2.909210000e-01
-4.369200000e+01  6.946030000e-37 -1.076900000e+01 -1.069940000e-37  6.946030000e-37 -5.792890000e-37  9.107671432e-37  3.041730000e-01
-4.426300000e+01  6.408480000e-37 -8.111500000e+00 -1.144670000e-37  6.408480000e-37 -5.212570000e-37  8.339650552e-37  3.168670000e-01
-4.467200000e+01  5.673800000e-37 -5.424200000e+00 -1.065130000e-37  5.673800000e-37 -4.465510000e-37  7.298444212e-37  3.287330000e-01
-4.491800000e+01  4.709020000e-37 -2.717000000e+00 -7.832930000e-38  4.709020000e-37 -3.550340000e-37  5.949229480e-37  3.392770000e-01
 5.490000000e+01 -6.606640000e-37 -3.320800000e+00  5.125300000e-37 -6.606640000e-37  3.482660000e-37  9.057886776e-37  1.299500000e-01
 5.459900000e+01 -6.798220000e-37 -6.629500000e+00  5.380600000e-37 -6.798220000e-37  3.267880000e-37  9.265294988e-37  1.299350000e-01
 5.409900000e+01 -6.981030000e-37 -9.914000000e+00  5.615680000e-37 -6.981030000e-37  3.016990000e-37  9.453722568e-37  1.300360000e-01
 5.340200000e+01 -7.154390000e-37 -1.316200000e+01  5.825540000e-37 -7.154390000e-37  2.736390000e-37  9.623411183e-37  1.302460000e-01
 5.251000000e+01 -7.313890000e-37 -1.636300000e+01  6.002930000e-37 -7.313890000e-37  2.427870000e-37  9.768454753e-37  1.305700000e-01
 5.142600000e+01 -7.461020000e-37 -1.950300000e+01  6.145320000e-37 -7.461020000e-37  2.096470000e-37  9.890751428e-37  1.309830000e-01
 5.015400000e+01 -7.596600000e-37 -2.257300000e+01  6.250230000e-37 -7.596600000e-37  1.747250000e-37  9.991325697e-37  1.314620000e-01
 4.870000000e+01 -7.720370000e-37 -2.556000000e+01  6.315950000e-37 -7.720370000e-37  1.384690000e-37  1.007038747e-36  1.319830000e-01
 4.706800000e+01 -7.834490000e-37 -2.845400000e+01  6.347710000e-37 -7.834490000e-37  1.014740000e-37  1.013421694e-36  1.325210000e-01
 4.526400000e+01 -7.938770000e-37 -3.124400000e+01  6.353700000e-37 -7.938770000e-37  6.429140000e-38  1.018856767e-36  1.330210000e-01
 4.329500000e+01 -8.043640000e-37 -3.392000000e+01  6.358270000e-37 -8.043640000e-37  2.795410000e-38  1.025699201e-36  1.334180000e-01
 4.116800000e+01 -8.140900000e-37 -3.647200000e+01  6.356700000e-37 -8.140900000e-37 -0.000000000e+00  1.032869245e-36  1.337250000e-01
 3.889100000e+01 -7.449040000e-37 -3.889100000e+01  5.618440000e-38 -7.449040000e-37 -6.067520000e-37  9.623859130e-37  1.338390000e-01
 3.647200000e+01 -8.263440000e-37 -4.116800000e+01  6.393960000e-37 -8.263440000e-37 -7.351480000e-38  1.047413995e-36  1.336600000e-01
 3.392000000e+01 -8.350800000e-37 -4.329500000e+01  6.473430000e-37 -8.350800000e-37 -1.065230000e-37  1.061959846e-36  1.332650000e-01
 3.124400000e+01 -8.438190000e-37 -4.526400000e+01  6.549530000e-37 -8.438190000e-37 -1.400440000e-37  1.077314373e-36  1.327530000e-01
 2.845400000e+01 -8.522400000e-37 -4.706800000e+01  6.606900000e-37 -8.522400000e-37 -1.744260000e-37  1.092359246e-36  1.322330000e-01
 2.556000000e+01 -8.606500000e-37 -4.870000000e+01  6.640840000e-37 -8.606500000e-37 -2.096460000e-37  1.107103169e-36  1.317780000e-01
 2.257300000e+01 -8.696770000e-37 -5.015400000e+01  6.652410000e-37 -8.696770000e-37 -2.455830000e-37  1.122138442e-36  1.314210000e-01
 1.950300000e+01 -8.806470000e-37 -5.142600000e+01  6.653680000e-37 -8.806470000e-37 -2.824110000e-37  1.139302281e-36  1.311760000e-01
 1.636300000e+01 -8.945590000e-37 -5.251000000e+01  6.656970000e-37 -8.945590000e-37 -3.204510000e-37  1.160205647e-36  1.310320000e-01
 1.316200000e+01 -9.147740000e-37 -5.340200000e+01  6.701040000e-37 -9.147740000e-37 -3.613670000e-37  1.190141567e-36  1.309860000e-01
 9.914000000e+00 -9.430860000e-37 -5.409900000e+01  6.800770000e-37 -9.430860000e-37 -4.073920000e-37  1.232024420e-36  1.310470000e-01
 6.629500000e+00 -9.683930000e-37 -5.459900000e+01  6.887910000e-37 -9.683930000e-37 -4.605990000e-37  1.274507545e-36  1.318000000e-01
 3.320800000e+00 -9.522120000e-37 -5.490000000e+01  6.644420000e-37 -9.522120000e-37 -4.908820000e-37  1.260617310e-36  1.332310000e-01
 5.102860000e+00  5.481465180e+01 -1.292840000e+00  1.782060000e+00 -8.534820000e-02 -1.292840000e+00  2.203283328e+00  1.582430000e-01
 8.479350000e+00  5.476558700e+01 -1.281390000e+00  1.849850000e+00  1.665870000e-01 -1.281390000e+00  2.256469938e+00  1.777710000e-01
 1.183478000e+01  5.444703200e+01 -1.258200000e+00  1.920780000e+00  3.480320000e-01 -1.258200000e+00  2.322410240e+00  1.902300000e-01
 1.514605000e+01  5.386801200e+01 -1.224710000e+00  1.984050000e+00  4.660120000e-01 -1.224710000e+00  2.377716588e+00  1.962080000e-01
 1.839483000e+01  5.303981100e+01 -1.182550000e+00  2.031830000e+00  5.298110000e-01 -1.182550000e+00  2.409866666e+00  1.969700000e-01
 2.156236000e+01  5.197563800e+01 -1.133440000e+00  2.059360000e+00  5.496380000e-01 -1.133440000e+00  2.414073689e+00  1.938070000e-01
 2.463743000e+01  5.068945300e+01 -1.079020000e+00  2.064430000e+00  5.354530000e-01 -1.079020000e+00  2.390160099e+00  1.878550000e-01
 2.760679000e+01  4.919632800e+01 -1.020760000e+00  2.046790000e+00  4.963280000e-01 -1.020760000e+00  2.340436234e+00  1.800410000e-01
 3.046159000e+01  4.750805100e+01 -9.599200000e-01  2.007590000e+00  4.400510000e-01 -9.599200000e-01  2.268371420e+00  1.710770000e-01
 3.319280000e+01  4.563701600e+01 -8.975190000e-01  1.948800000e+00  3.730160000e-01 -8.975190000e-01  2.177728801e+00  1.614850000e-01
 3.579275000e+01  4.359525400e+01 -8.343680000e-01  1.872750000e+00  3.002540000e-01 -8.343680000e-01  2.072079870e+00  1.516300000e-01
 3.825387000e+01  4.139358500e+01 -7.710880000e-01  1.781870000e+00  2.255850000e-01 -7.710880000e-01  1.954616585e+00  1.417720000e-01
 4.056936000e+01  3.904283100e+01 -7.081730000e-01  1.678360000e+00  1.518310000e-01 -7.081730000e-01  1.827964425e+00  1.321110000e-01
 4.273221000e+01  3.655310880e+01 -6.459240000e-01  1.564210000e+00  8.110880000e-02 -6.459240000e-01  1.694269570e+00  1.228250000e-01
 4.473605000e+01  3.393496330e+01 -5.845150000e-01  1.441050000e+00  1.496330000e-02 -5.845150000e-01  1.555154908e+00  1.140700000e-01
 4.657424000e+01  3.119869490e+01 -5.241570000e-01  1.310240000e+00 -4.530510000e-02 -5.241570000e-01  1.411921375e+00  1.060510000e-01
 4.824098000e+01  2.835553850e+01 -4.649890000e-01  1.172980000e+00 -9.846150000e-02 -4.649890000e-01  1.265619025e+00  9.910640000e-02
 4.973053000e+01  2.541683200e+01 -4.071120000e-01  1.030530000e+00 -1.431680000e-01 -4.071120000e-01  1.117241844e+00  9.373940000e-02
 5.103840400e+01  2.239515100e+01 -3.506150000e-01  8.844040000e-01 -1.778490000e-01 -3.506150000e-01  9.678489450e-01  9.066490000e-02
 5.216265900e+01  1.930231800e+01 -2.955750000e-01  7.366590000e-01 -2.006820000e-01 -2.955750000e-01  8.187211540e-01  9.079040000e-02
 5.310028500e+01  1.615351500e+01 -2.420620000e-01  5.902850000e-01 -2.094850000e-01 -2.420620000e-01  6.715015698e-01  9.496120000e-02
 5.385131700e+01  1.295974700e+01 -1.901370000e-01  4.493170000e-01 -2.022530000e-01 -1.901370000e-01  5.281516082e-01  1.039340000e-01
 5.441881500e+01  9.737617000e+00 -1.398560000e-01  3.198150000e-01 -1.763830000e-01 -1.398560000e-01  3.910911628e-01  1.168250000e-01
 5.480547400e+01  6.496566000e+00 -9.127980000e-02  2.064740000e-01 -1.329340000e-01 -9.127980000e-02  2.619827531e-01  1.376790000e-01
 5.502462800e+01  3.257111300e+00 -4.469580000e-02  1.246280000e-01 -6.368870000e-02 -4.469580000e-02  1.469220999e-01  1.408060000e-01
 5.166700000e+01 -8.358560000e-37 -6.195680000e-37  8.735480000e-38 -8.358560000e-37 -6.195680000e-37  1.044102783e-36  1.019530000e-01
 4.833300000e+01 -9.328280000e-38 -1.095050000e-37 -7.728190000e-38 -9.328280000e-38 -1.095050000e-37  1.632957987e-37  7.325470000e-02
 5.429690000e+00  4.482356430e+01 -1.910110000e+00  2.712690000e+00 -9.443570000e-02 -1.910110000e+00  3.319054888e+00  4.894750000e-01
 8.010650000e+00  4.479473300e+01 -1.724810000e+00  2.586450000e+00  1.227330000e-01 -1.724810000e+00  3.111230710e+00  4.610240000e-01
 1.058220000e+01  4.455684800e+01 -1.558650000e+00  2.470700000e+00  2.938480000e-01 -1.558650000e+00  2.935999823e+00  4.286220000e-01
 1.313204000e+01  4.411403000e+01 -1.409990000e+00  2.363040000e+00  4.220300000e-01 -1.409990000e+00  2.783907176e+00  3.944030000e-01
 1.564888000e+01  4.347370200e+01 -1.277230000e+00  2.260880000e+00  5.117020000e-01 -1.277230000e+00  2.646645761e+00  3.599830000e-01
 1.811878000e+01  4.264396400e+01 -1.158610000e+00  2.161780000e+00  5.679640000e-01 -1.158610000e+00  2.517588728e+00  3.265670000e-01
 2.053269000e+01  4.163124200e+01 -1.052500000e+00  2.063690000e+00  5.962420000e-01 -1.052500000e+00  2.392086367e+00  2.949980000e-01
 2.287800000e+01  4.044789800e+01 -9.573140000e-01  1.965000000e+00  6.018980000e-01 -9.573140000e-01  2.267147171e+00  2.657890000e-01
 2.514453000e+01  3.909998300e+01 -8.715740000e-01  1.864530000e+00  5.899830000e-01 -8.715740000e-01  2.141072932e+00  2.391810000e-01
 2.732446000e+01  3.759904600e+01 -7.939090000e-01  1.761460000e+00  5.650460000e-01 -7.939090000e-01  2.013034976e+00  2.151990000e-01
 2.940727000e+01  3.595403800e+01 -7.230810000e-01  1.655270000e+00  5.310380000e-01 -7.230810000e-01  1.882754966e+00  1.937410000e-01
 3.138667000e+01  3.417428700e+01 -6.579780000e-01  1.545670000e+00  4.912870000e-01 -6.579780000e-01  1.750255328e+00  1.746560000e-01
 3.325250000e+01  3.226853400e+01 -5.975900000e-01  1.432500000e+00  4.485340000e-01 -5.975900000e-01  1.615658630e+00  1.577150000e-01
 3.499876000e+01  3.024593600e+01 -5.410680000e-01  1.315760000e+00  4.049360000e-01 -5.410680000e-01  1.479172783e+00  1.426370000e-01
 3.661857000e+01  2.811413200e+01 -4.876770000e-01  1.195570000e+00  3.621320000e-01 -4.876770000e-01  1.341027989e+00  1.291810000e-01
 3.810621000e+01  2.588430900e+01 -4.367590000e-01  1.072210000e+00  3.213090000e-01 -4.367590000e-01  1.201512456e+00  1.171070000e-01
 3.945613800e+01  2.356324100e+01 -3.877970000e-01  9.461380000e-01  2.832410000e-01 -3.877970000e-01  1.061032088e+00  1.061690000e-01
 4.066409100e+01  2.116133200e+01 -3.403860000e-01  8.180910000e-01  2.483320000e-01 -3.403860000e-01  9.202196996e-01  9.615600000e-02
 4.172418900e+01  1.868562900e+01 -2.942290000e-01  6.891890000e-01  2.166290000e-01 -2.942290000e-01  7.800514764e-01  8.692610000e-02
 4.263709400e+01  1.614479100e+01 -2.491270000e-01  5.610940000e-01  1.877910000e-01 -2.491270000e-01  6.419939242e-01  7.853230000e-02
 4.339801800e+01  1.354906500e+01 -2.049750000e-01  4.360180000e-01  1.610650000e-01 -2.049750000e-01  5.080043122e-01  7.142470000e-02
 4.400923100e+01  1.090400900e+01 -1.617590000e-01  3.172310000e-01  1.350090000e-01 -1.617590000e-01  3.808266161e-01  6.683150000e-02
 4.447122700e+01  8.219313000e+00 -1.195300000e-01  2.082270000e-01  1.078130000e-01 -1.195300000e-01  2.631910853e-01  6.712360000e-02
 4.478787100e+01  5.499347900e+00 -7.846540000e-02  1.158710000e-01  7.514790000e-02 -7.846540000e-02  1.588399021e-01  7.453770000e-02
 4.497220630e+01  2.751917600e+00 -3.857480000e-02  5.420630000e-02  3.491760000e-02 -3.857480000e-02  7.513705440e-02  7.649740000e-02
 2.717000000e+00  3.761890000e-37 -4.491800000e+01  3.234920000e-37  3.761890000e-37 -1.426310000e-37  5.162449418e-37  8.895010000e-02
 5.424200000e+00  3.513600000e-37 -4.467200000e+01  3.134660000e-37  3.513600000e-37 -1.194370000e-37  4.857777061e-37  8.404400000e-02
 8.111500000e+00  3.407050000e-37 -4.426300000e+01  3.022520000e-37  3.407050000e-37 -9.755760000e-38  4.657828398e-37  7.947010000e-02
 1.076900000e+01  3.351200000e-37 -4.369200000e+01  2.930960000e-37  3.351200000e-37 -7.839900000e-38  4.520587161e-37  7.547370000e-02
 1.338800000e+01  3.302060000e-37 -4.296200000e+01  2.843700000e-37  3.302060000e-37 -6.122190000e-38  4.400572922e-37  7.175770000e-02
 1.595700000e+01  3.250290000e-37 -4.207600000e+01  2.755940000e-37  3.250290000e-37 -4.557060000e-38  4.285703948e-37  6.827080000e-02
 1.846900000e+01  3.194550000e-37 -4.103500000e+01  2.663460000e-37  3.194550000e-37 -3.128410000e-38  4.170975709e-37  6.500660000e-02
 2.091300000e+01  3.137230000e-37 -3.984600000e+01  2.565770000e-37  3.137230000e-37 -1.829990000e-38  4.056954079e-37  6.198950000e-02
 2.328000000e+01  3.080590000e-37 -3.851000000e+01  2.462960000e-37  3.080590000e-37 -0.000000000e+00  3.944135737e-37  5.925240000e-02
 2.556300000e+01  3.028500000e-37 -3.703400000e+01  2.357920000e-37  3.028500000e-37  0.000000000e+00  3.838176517e-37  5.683200000e-02
 2.775200000e+01  2.984140000e-37 -3.542300000e+01  2.256690000e-37  2.984140000e-37  1.298700000e-38  3.743608889e-37  5.476840000e-02
 2.984100000e+01  2.949820000e-37 -3.368300000e+01  2.171940000e-37  2.949820000e-37  2.113050000e-38  3.669252131e-37  5.309590000e-02
 3.182000000e+01  2.916290000e-37 -3.182000000e+01  2.112650000e-37  2.916290000e-37  2.872800000e-38  3.612556876e-37  5.179690000e-02
 3.368300000e+01  2.829320000e-37 -2.984100000e+01  0.000000000e+00  2.829320000e-37 -1.922450000e-37  3.420652813e-37  5.088710000e-02
 3.542300000e+01  2.868720000e-37 -2.775200000e+01  1.351710000e-38  2.868720000e-37 -1.992810000e-37  3.495585406e-37  5.042790000e-02
 3.703400000e+01  2.916890000e-37 -2.556300000e+01  2.084620000e-38  2.916890000e-37 -2.073380000e-37  3.584774512e-37  5.044140000e-02
 3.851000000e+01  2.972610000e-37 -2.328000000e+01  2.937310000e-38  2.972610000e-37 -2.160610000e-37  3.686586997e-37  5.091870000e-02
 3.984600000e+01  3.033680000e-37 -2.091300000e+01  3.912700000e-38  3.033680000e-37 -2.244590000e-37  3.794007225e-37  5.184920000e-02
 4.103500000e+01  3.099250000e-37 -1.846900000e+01  4.999580000e-38  3.099250000e-37 -2.322050000e-37  3.904769490e-37  5.322850000e-02
 4.207600000e+01  3.167590000e-37 -1.595700000e+01  6.186370000e-38  3.167590000e-37 -2.390570000e-37  4.016361920e-37  5.503250000e-02
 4.296200000e+01  3.237570000e-37 -1.338800000e+01  7.462230000e-38  3.237570000e-37 -2.449030000e-37  4.127524223e-37  5.722470000e-02
 4.369200000e+01  3.308780000e-37 -1.076900000e+01  8.816700000e-38  3.308780000e-37 -2.496820000e-37  4.237862337e-37  5.976440000e-02
 4.426300000e+01  3.381310000e-37 -8.111500000e+00  1.023650000e-37  3.381310000e-37 -2.533650000e-37  4.347470409e-37  6.262010000e-02
 4.467200000e+01  3.456350000e-37 -5.424200000e+00  1.172190000e-37  3.456350000e-37 -2.559110000e-37  4.457513736e-37  6.575800000e-02
 4.491800000e+01  3.533770000e-37 -2.717000000e+00  1.322180000e-37  3.533770000e-37 -2.571360000e-37  4.565915310e-37  6.915750000e-02
 3.320800000e+00 -1.368390000e-37  5.490000000e+01 -1.338190000e-37 -1.368390000e-37  4.720070000e-37  5.093358860e-37  2.589350000e-01
 6.629500000e+00 -1.135350000e-37  5.459900000e+01 -1.481090000e-37 -1.135350000e-37  4.620460000e-37  4.983101225e-37  2.529840000e-01
 9.914000000e+00 -1.383990000e-37  5.409900000e+01 -1.146800000e-37 -1.383990000e-37  4.504680000e-37  4.850022728e-37  2.464920000e-01
 1.316200000e+01 -1.726730000e-37  5.340200000e+01 -7.449060000e-38 -1.726730000e-37  4.402680000e-37  4.787491266e-37  2.391560000e-01
 1.636300000e+01 -2.057020000e-37  5.251000000e+01 -3.725220000e-38 -2.057020000e-37  4.300440000e-37  4.781619821e-37  2.310250000e-01
 1.950300000e+01 -2.350610000e-37  5.142600000e+01 -0.000000000e+00 -2.350610000e-37  4.184470000e-37  4.799495448e-37  2.225380000e-01
 2.257300000e+01 -2.615620000e-37  5.015400000e+01  2.510020000e-38 -2.615620000e-37  4.060300000e-37  4.836373236e-37  2.139420000e-01
 2.556000000e+01 -2.861510000e-37  4.870000000e+01  5.113600000e-38 -2.861510000e-37  3.929750000e-37  4.888012233e-37  2.054390000e-01
 2.845400000e+01 -3.099210000e-37  4.706800000e+01  7.466840000e-38 -3.099210000e-37  3.798860000e-37  4.959231485e-37  1.971730000e-01
 3.124400000e+01 -3.332710000e-37  4.526400000e+01  9.612090000e-38 -3.332710000e-37  3.676390000e-37  5.054376531e-37  1.892420000e-01
 3.392000000e+01 -3.560290000e-37  4.329500000e+01  1.156830000e-37 -3.560290000e-37  3.575230000e-37  5.176503655e-37  1.817050000e-01
 3.647200000e+01 -3.778010000e-37  4.116800000e+01  1.335240000e-37 -3.778010000e-37  3.507290000e-37  5.325158079e-37  1.746210000e-01
 3.889100000e+01 -3.992290000e-37  3.889100000e+01  1.506240000e-37 -3.992290000e-37  3.473590000e-37  5.502087410e-37  1.680470000e-01
 4.116800000e+01 -4.208980000e-37  3.647200000e+01  1.683840000e-37 -4.208980000e-37  3.481660000e-37  5.716011384e-37  1.620150000e-01
 4.329500000e+01 -4.385420000e-37  3.392000000e+01  1.855980000e-37 -4.385420000e-37  3.546830000e-37  5.937724597e-37  1.565490000e-01
 4.526400000e+01 -4.546350000e-37  3.124400000e+01  2.038480000e-37 -4.546350000e-37  3.641060000e-37  6.171062871e-37  1.516700000e-01
 4.706800000e+01 -4.704310000e-37  2.845400000e+01  2.240460000e-37 -4.704310000e-37  3.744640000e-37  6.416581825e-37  1.473840000e-01
 4.870000000e+01 -4.866020000e-37  2.556000000e+01  2.465770000e-37 -4.866020000e-37  3.843260000e-37  6.672991815e-37  1.436850000e-01
 5.015400000e+01 -5.035190000e-37  2.257300000e+01  2.714700000e-37 -5.035190000e-37  3.927540000e-37  6.938897958e-37  1.405370000e-01
 5.142600000e+01 -5.212490000e-37  1.950300000e+01  2.985110000e-37 -5.212490000e-37  3.990260000e-37  7.211318089e-37  1.378970000e-01
 5.251000000e+01 -5.397680000e-37  1.636300000e+01  3.274080000e-37 -5.397680000e-37  4.026910000e-37  7.488027335e-37  1.357190000e-01
 5.340200000e+01 -5.587750000e-37  1.316200000e+01  3.577380000e-37 -5.587750000e-37  4.030920000e-37  7.763305596e-37  1.339640000e-01
 5.409900000e+01 -5.784430000e-37  9.914000000e+00  3.892190000e-37 -5.784430000e-37  4.001890000e-37  8.038898991e-37  1.325880000e-01
 5.459900000e+01 -5.982560000e-37  6.629500000e+00  4.210840000e-37 -5.982560000e-37  3.929370000e-37  8.304345023e-37  1.315380000e-01
 5.490000000e+01 -6.197540000e-37  3.320800000e+00  4.541530000e-37 -6.197540000e-37  3.829080000e-37  8.584686974e-37  1.307280000e-01
 2.717000000e+00  7.906520000e-37  4.491800000e+01  5.823590000e-37  7.906520000e-37  2.516400000e-37  1.013703743e-36  2.717810000e-01
 5.424200000e+00  7.408680000e-37  4.467200000e+01  5.918970000e-37  7.408680000e-37  2.196230000e-37  9.733764504e-37  2.574270000e-01
 8.111500000e+00  7.091210000e-37  4.426300000e+01  6.007350000e-37  7.091210000e-37  1.826780000e-37  9.471570010e-37  2.440600000e-01
 1.076900000e+01  6.889300000e-37  4.369200000e+01  6.039900000e-37  6.889300000e-37  1.430450000e-37  9.273027214e-37  2.315020000e-01
 1.338800000e+01  6.723330000e-37  4.296200000e+01  6.003270000e-37  6.723330000e-37  1.028790000e-37  9.071980260e-37  2.194140000e-01
 1.595700000e+01  6.542300000e-37  4.207600000e+01  5.881130000e-37  6.542300000e-37  6.262760000e-38  8.819387790e-37  2.077410000e-01
 1.846900000e+01  6.337930000e-37  4.103500000e+01  5.688000000e-37  6.337930000e-37  2.392780000e-38  8.519386988e-37  1.965490000e-01
 2.091300000e+01  6.111040000e-37  3.984600000e+01  5.436710000e-37  6.111040000e-37 -1.227040000e-38  8.180322841e-37  1.858960000e-01
 2.328000000e+01  5.871830000e-37  3.851000000e+01  5.146370000e-37  5.871830000e-37 -4.518210000e-38  7.820975255e-37  1.758240000e-01
 2.556300000e+01  5.631340000e-37  3.703400000e+01  4.836460000e-37  5.631340000e-37 -7.443970000e-38  7.460392913e-37  1.663540000e-01
 2.775200000e+01  5.398490000e-37  3.542300000e+01  4.525480000e-37  5.398490000e-37 -1.000240000e-37  7.115064551e-37  1.574780000e-01
 2.984100000e+01  5.180530000e-37  3.368300000e+01  4.230180000e-37  5.180530000e-37 -1.223320000e-37  6.799178313e-37  1.492130000e-01
 3.182000000e+01  4.981900000e-37  3.182000000e+01  3.959910000e-37  4.981900000e-37 -1.417830000e-37  6.520004350e-37  1.415110000e-01
 3.368300000e+01  2.678870000e-37  2.984100000e+01  1.101320000e-37  2.678870000e-37  1.647240000e-37  3.332063900e-37  1.343150000e-01
 3.542300000e+01  2.548120000e-37  2.775200000e+01  1.106780000e-37  2.548120000e-37  1.546720000e-37  3.179657255e-37  1.275930000e-01
 3.703400000e+01  2.431120000e-37  2.556300000e+01  1.117500000e-37  2.431120000e-37  1.470280000e-37  3.053010642e-37  1.212730000e-01
 3.851000000e+01  2.332790000e-37  2.328000000e+01  1.136320000e-37  2.332790000e-37  1.416470000e-37  2.956267848e-37  1.153040000e-01
 3.984600000e+01  2.255080000e-37  2.091300000e+01  1.163080000e-37  2.255080000e-37  1.374510000e-37  2.885726708e-37  1.096420000e-01
 4.103500000e+01  2.198780000e-37  1.846900000e+01  1.196070000e-37  2.198780000e-37  1.338790000e-37  2.838586902e-37  1.042560000e-01
 4.207600000e+01  2.161700000e-37  1.595700000e+01  1.234070000e-37  2.161700000e-37  1.306010000e-37  2.810967409e-37  9.912440000e-02
 4.296200000e+01  2.141760000e-37  1.338800000e+01  1.276460000e-37  2.141760000e-37  1.275270000e-37  2.800499884e-37  9.423260000e-02
 4.369200000e+01  2.137030000e-37  1.076900000e+01  1.322870000e-37  2.137030000e-37  1.245890000e-37  2.805195920e-37  8.956700000e-02
 4.426300000e+01  2.145720000e-37  8.111500000e+00  1.372530000e-37  2.145720000e-37  1.217060000e-37  2.822975020e-37  8.511600000e-02
 4.467200000e+01  2.166560000e-37  5.424200000e+00  1.425730000e-37  2.166560000e-37  1.187780000e-37  2.852632047e-37  8.085290000e-02
 4.491800000e+01  2.195050000e-37  2.717000000e+00  1.477480000e-37  2.195050000e-37  1.155840000e-37  2.887413680e-37  7.670380000e-02
-3.893623594e+01  2.825212200e+00  3.880302660e+01 -1.235940000e-03  6.241220000e-02  5.502660000e-02  8.321500444e-02  2.118860000e-01
-3.653813559e+01  2.851462900e+00  4.108086420e+01  7.864410000e-03  5.576290000e-02  7.386420000e-02  9.288309858e-02  2.132190000e-01
-3.401142900e+01  2.907065700e+00  4.320829370e+01  1.857100000e-02  4.796570000e-02  9.429370000e-02  1.074099263e-01  2.158100000e-01
-3.136458780e+01  2.974849200e+00  4.517821600e+01  3.141220000e-02  3.884920000e-02  1.152160000e-01  1.255815006e-01  2.198860000e-01
-2.860641830e+01  3.045645100e+00  4.698548500e+01  4.658170000e-02  2.864510000e-02  1.354850000e-01  1.461046945e-01  2.253260000e-01
-2.575095090e+01  3.115730100e+00  4.862094600e+01  6.404910000e-02  1.773010000e-02  1.539460000e-01  1.676783068e-01  2.316510000e-01
-2.281044640e+01  3.185534330e+00  5.007761000e+01  8.355360000e-02  6.534330000e-03  1.696100000e-01  1.891862935e-01  2.382090000e-01
-1.980230600e+01  3.258825370e+00  5.134882700e+01  1.046940000e-01 -4.474630000e-03  1.818270000e-01  2.098616541e-01  2.443160000e-01
-1.674580400e+01  3.346234500e+00  5.243051400e+01  1.271960000e-01 -1.496550000e-02  1.905140000e-01  2.295612615e-01  2.493570000e-01
-1.367076900e+01  3.466016400e+00  5.331626700e+01  1.512310000e-01 -2.478360000e-02  1.962670000e-01  2.490095931e-01  2.528140000e-01
-1.059934600e+01  3.643270100e+00  5.400809300e+01  1.776540000e-01 -3.422990000e-02  2.000930000e-01  2.697588523e-01  2.543360000e-01
-7.471752000e+00  3.911578900e+00  5.451980000e+01  2.087480000e-01 -4.402110000e-02  2.028000000e-01  2.943491545e-01  2.539080000e-01
-3.985152000e+00  4.176685300e+00  5.487334700e+01  2.399480000e-01 -5.271470000e-02  1.993470000e-01  3.163749496e-01  2.531430000e-01
-3.876995550e+01  5.707467000e+00  3.860921650e+01  5.904450000e-02  1.726670000e-01  5.121650000e-02  1.895343656e-01  2.242820000e-01
-3.639128860e+01  5.763372000e+00  4.087410140e+01  7.471140000e-02  1.585720000e-01  8.410140000e-02  1.944220100e-01  2.202390000e-01
-3.388337730e+01  5.875199000e+00  4.298767200e+01  9.362270000e-02  1.421990000e-01  1.186720000e-01  2.075302608e-01  2.172190000e-01
-3.125325700e+01  6.012424000e+00  4.494656600e+01  1.157430000e-01  1.234240000e-01  1.545660000e-01  2.291736769e-01  2.157780000e-01
-2.851395500e+01  6.157296000e+00  4.674438000e+01  1.410450000e-01  1.023960000e-01  1.903800000e-01  2.581146591e-01  2.161950000e-01
-2.567538500e+01  6.302616400e+00  4.837351200e+01  1.696150000e-01  7.981640000e-02  2.245120000e-01  2.924816987e-01  2.182200000e-01
-2.275362600e+01  6.448875300e+00  4.982515800e+01  2.013740000e-01  5.657530000e-02  2.551580000e-01  3.299361414e-01  2.212920000e-01
-1.976295100e+01  6.603511600e+00  5.109285600e+01  2.360490000e-01  3.361160000e-02  2.808560000e-01  3.684141186e-01  2.247630000e-01
-1.672257200e+01  6.782272000e+00  5.216882900e+01  2.734280000e-01  1.177200000e-02  3.008290000e-01  4.066934207e-01  2.279990000e-01
-1.364943700e+01  7.009000260e+00  5.304821900e+01  3.135630000e-01 -8.399740000e-03  3.152190000e-01  4.446968952e-01  2.304340000e-01
-1.054111700e+01  7.306807300e+00  5.373270800e+01  3.568830000e-01 -2.689270000e-02  3.247080000e-01  4.832431875e-01  2.315700000e-01
-7.265882000e+00  7.645342700e+00  5.424514800e+01  4.021180000e-01 -4.465730000e-02  3.281480000e-01  5.209359560e-01  2.313310000e-01
-3.555323000e+00  7.710040300e+00  5.461609300e+01  4.318770000e-01 -6.305970000e-02  3.140930000e-01  5.377254704e-01  2.317800000e-01
-3.837552900e+01  8.568913000e+00  3.823253160e+01  2.204710000e-01  2.721130000e-01 -6.246840000e-02  3.557460437e-01  2.233950000e-01
-3.602962500e+01  8.658239000e+00  4.047237910e+01  2.303750000e-01  2.535390000e-01 -1.962090000e-02  3.431321099e-01  2.202760000e-01
-3.354893400e+01  8.828391000e+00  4.255959050e+01  2.450660000e-01  2.323910000e-01  2.659050000e-02  3.387771774e-01  2.182350000e-01
-3.094356000e+01  9.036866000e+00  4.449707270e+01  2.634400000e-01  2.083660000e-01  7.707270000e-02  3.446117013e-01  2.172590000e-01
-2.822659500e+01  9.257280000e+00  4.628005200e+01  2.854050000e-01  1.817800000e-01  1.310520000e-01  3.628699617e-01  2.177000000e-01
-2.540735500e+01  9.478058000e+00  4.789947400e+01  3.116450000e-01  1.533580000e-01  1.864740000e-01  3.942256142e-01  2.193040000e-01
-2.250016800e+01  9.697620000e+00  4.934830700e+01  3.428320000e-01  1.241200000e-01  2.403070000e-01  4.366772365e-01  2.215700000e-01
-1.951576600e+01  9.921935000e+00  5.061450100e+01  3.792340000e-01  9.513500000e-02  2.895010000e-01  4.864976094e-01  2.239490000e-01
-1.646727600e+01  1.016438270e+01  5.169159800e+01  4.207240000e-01  6.738270000e-02  3.315980000e-01  5.399132764e-01  2.259110000e-01
-1.336308600e+01  1.044060790e+01  5.257207300e+01  4.669140000e-01  4.160790000e-02  3.650730000e-01  5.941533439e-01  2.269450000e-01
-1.018408000e+01  1.075767680e+01  5.325869200e+01  5.169200000e-01  1.767680000e-02  3.896920000e-01  6.475944800e-01  2.266760000e-01
-6.814748000e+00  1.103397886e+01  5.377682500e+01  5.666520000e-01 -6.021140000e-03  4.038250000e-01  6.958486717e-01  2.251140000e-01
-3.127855000e+00  1.093476520e+01  5.416585700e+01  5.973450000e-01 -3.323480000e-02  3.998570000e-01  7.195910098e-01  2.243670000e-01
-3.776982700e+01  1.136799100e+01  3.766176600e+01  4.811730000e-01  3.319910000e-01 -2.862340000e-01  6.509035126e-01  2.175050000e-01
-3.547084600e+01  1.149215800e+01  3.986048200e+01  4.741540000e-01  3.121580000e-01 -2.385180000e-01  6.157560142e-01  2.156460000e-01
-3.302958600e+01  1.172052300e+01  4.190872100e+01  4.734140000e-01  2.895230000e-01 -1.852790000e-01  5.850407599e-01  2.146680000e-01
-3.046081800e+01  1.199931500e+01  4.381084000e+01  4.761820000e-01  2.643150000e-01 -1.231600000e-01  5.583727267e-01  2.143410000e-01
-2.777675500e+01  1.229308400e+01  4.556757360e+01  4.822450000e-01  2.370840000e-01 -5.142640000e-02  5.398275074e-01  2.154420000e-01
-2.498872300e+01  1.258560000e+01  4.717072380e+01  4.932770000e-01  2.086000000e-01  2.772380000e-02  5.362879523e-01  2.178440000e-01
-2.210578100e+01  1.287161300e+01  4.861199200e+01  5.112190000e-01  1.796130000e-01  1.099920000e-01  5.529049971e-01  2.210630000e-01
-1.913659900e+01  1.315190000e+01  4.987837400e+01  5.374010000e-01  1.509000000e-01  1.903740000e-01  5.897566487e-01  2.244700000e-01
-1.608986900e+01  1.343514700e+01  5.096114100e+01  5.721310000e-01  1.231470000e-01  2.641410000e-01  6.420821853e-01  2.274010000e-01
-1.297017200e+01  1.372772910e+01  5.185074200e+01  6.148280000e-01  9.672910000e-02  3.277420000e-01  7.034094163e-01  2.291930000e-01
-9.758409000e+00  1.402339470e+01  5.254938800e+01  6.635910000e-01  7.139470000e-02  3.793880000e-01  7.677144476e-01  2.293580000e-01
-6.379806000e+00  1.422810210e+01  5.308351300e+01  7.129940000e-01  4.510210000e-02  4.185130000e-01  8.279781245e-01  2.275680000e-01
-2.796276000e+00  1.406671550e+01  5.349624500e+01  7.457240000e-01  1.471550000e-02  4.402450000e-01  8.661042028e-01  2.262790000e-01
-3.696303700e+01  1.406999300e+01  3.688669400e+01  8.419630000e-01  3.259930000e-01 -6.213060000e-01  1.095990089e+00  1.968120000e-01
-3.472586000e+01  1.422918800e+01  3.903153300e+01  8.071400000e-01  3.081880000e-01 -5.744670000e-01  1.037529352e+00  1.962280000e-01
-3.233776800e+01  1.451313300e+01  4.102334500e+01  7.802320000e-01  2.871330000e-01 -5.196550000e-01  9.804328904e-01  1.964710000e-01
-2.981999900e+01  1.485939200e+01  4.287616400e+01  7.560010000e-01  2.643920000e-01 -4.498360000e-01  9.185820968e-01  1.971350000e-01
-2.718501300e+01  1.522449900e+01  4.459409800e+01  7.339870000e-01  2.414990000e-01 -3.619020000e-01  8.532477605e-01  1.996110000e-01
-2.444389400e+01  1.558615600e+01  4.617239700e+01  7.171060000e-01  2.191560000e-01 -2.576030000e-01  7.928616986e-01  2.040470000e-01
-2.160380500e+01  1.593366300e+01  4.760157400e+01  7.091950000e-01  1.976630000e-01 -1.424260000e-01  7.498755731e-01  2.100140000e-01
-1.866982700e+01  1.626502900e+01  4.886844090e+01  7.131730000e-01  1.770290000e-01 -2.355910000e-02  7.351938696e-01  2.166800000e-01
-1.564855000e+01  1.658213700e+01  4.996069930e+01  7.304500000e-01  1.571370000e-01  9.169930000e-02  7.527668968e-01  2.230310000e-01
-1.254238200e+01  1.688470000e+01  5.086802600e+01  7.606180000e-01  1.377000000e-01  1.970260000e-01  7.976968576e-01  2.280360000e-01
-9.340627000e+00  1.715896800e+01  5.158883000e+01  8.013730000e-01  1.179680000e-01  2.888300000e-01  8.599638964e-01  2.308920000e-01
-6.002976000e+00  1.732251660e+01  5.214804200e+01  8.463240000e-01  9.651660000e-02  3.660420000e-01  9.271280995e-01  2.311740000e-01
-2.530841000e+00  1.716385820e+01  5.259090000e+01  8.811590000e-01  7.085820000e-02  4.259000000e-01  9.812506702e-01  2.315680000e-01
-3.596035000e+01  1.663376600e+01  3.591094000e+01  1.300650000e+00  2.217660000e-01 -1.065060000e+00  1.695648367e+00  1.750640000e-01
-3.380014000e+01  1.682663800e+01  3.798626000e+01  1.227860000e+00  2.096380000e-01 -1.024740000e+00  1.612972516e+00  1.726240000e-01
-3.148123000e+01  1.716399200e+01  3.990634900e+01  1.164770000e+00  1.929920000e-01 -9.736510000e-01  1.530337000e+00  1.715860000e-01
-2.903018000e+01  1.757530600e+01  4.169359300e+01  1.102820000e+00  1.763060000e-01 -9.004070000e-01  1.434583049e+00  1.708770000e-01
-2.646287000e+01  1.800979100e+01  4.336076500e+01  1.041130000e+00  1.627910000e-01 -7.982350000e-01  1.321980220e+00  1.725400000e-01
-2.378775000e+01  1.843951200e+01  4.490582300e+01  9.842500000e-01  1.535120000e-01 -6.681770000e-01  1.199489266e+00  1.774760000e-01
-2.101073800e+01  1.885102100e+01  4.631736500e+01  9.382620000e-01  1.480210000e-01 -5.166350000e-01  1.081275876e+00  1.856900000e-01
-1.813450300e+01  1.923520600e+01  4.758388500e+01  9.084970000e-01  1.452060000e-01 -3.531150000e-01  9.854652630e-01  1.962110000e-01
-1.516418900e+01  1.959058600e+01  4.868801300e+01  8.978110000e-01  1.435860000e-01 -1.879870000e-01  9.284506682e-01  2.074670000e-01
-1.210227600e+01  1.991260700e+01  4.961740700e+01  9.067240000e-01  1.416070000e-01 -3.059300000e-02  9.182248561e-01  2.177320000e-01
-8.944037000e+00  2.018490200e+01  5.036749900e+01  9.325630000e-01  1.379020000e-01  1.124990000e-01  9.493928247e-01  2.256520000e-01
-5.673204000e+00  2.034019800e+01  5.095790700e+01  9.689960000e-01  1.311980000e-01  2.389070000e-01  1.006599582e+00  2.304880000e-01
-2.306350000e+00  2.021673500e+01  5.143611300e+01  1.003350000e+00  1.197350000e-01  3.461130000e-01  1.068102009e+00  2.347650000e-01
-3.477669000e+01  1.901854510e+01  3.474622000e+01  1.847310000e+00 -1.145490000e-02 -1.606780000e+00  2.448351980e+00  1.890200000e-01
-3.270899000e+01  1.924634860e+01  3.673837000e+01  1.728010000e+00 -1.365140000e-02 -1.577630000e+00  2.339897720e+00  1.780710000e-01
-3.047411000e+01  1.963507360e+01  3.857083000e+01  1.619890000e+00 -2.292640000e-02 -1.535170000e+00  2.231886234e+00  1.695590000e-01
-2.810430000e+01  2.010780490e+01  4.028003000e+01  1.510700000e+00 -3.019510000e-02 -1.461970000e+00  2.102494356e+00  1.608910000e-01
-2.562086000e+01  2.061095100e+01  4.188332000e+01  1.399140000e+00 -2.904900000e-02 -1.347680000e+00  1.942853048e+00  1.540320000e-01
-2.303066000e+01  2.111210760e+01  4.338322000e+01  1.291340000e+00 -1.789240000e-02 -1.191780000e+00  1.757332838e+00  1.514640000e-01
-2.033751000e+01  2.159028331e+01  4.477226000e+01  1.196490000e+00  2.283310000e-03 -1.001740000e+00  1.560473185e+00  1.552470000e-01
-1.754165000e+01  2.203658660e+01  4.603250900e+01  1.122350000e+00  2.858660000e-02 -7.894910000e-01  1.372509656e+00  1.655260000e-01
-1.464576000e+01  2.244165380e+01  4.714854000e+01  1.074240000e+00  5.765380000e-02 -5.684600000e-01  1.216742499e+00  1.802300000e-01
-1.165250000e+01  2.279906880e+01  4.810121000e+01  1.053500000e+00  8.606880000e-02 -3.517900000e-01  1.114013596e+00  1.962000000e-01
-8.562990000e+00  2.309311900e+01  4.888387900e+01  1.058010000e+00  1.111190000e-01 -1.491210000e-01  1.074229801e+00  2.107040000e-01
-5.374530000e+00  2.326723700e+01  4.951254680e+01  1.081170000e+00  1.312370000e-01  3.454680000e-02  1.089653707e+00  2.220750000e-01
-2.108190000e+00  2.319790100e+01  5.002814000e+01  1.111710000e+00  1.449010000e-01  1.961400000e-01  1.138141610e+00  2.322260000e-01
-3.343012000e+01  2.119240300e+01  3.341431000e+01  2.464880000e+00 -3.995970000e-01 -2.227690000e+00  3.346328423e+00  2.659140000e-01
-3.146934000e+01  2.145589200e+01  3.530905000e+01  2.292660000e+00 -3.871080000e-01 -2.213950000e+00  3.210563359e+00  2.424630000e-01
-2.933144000e+01  2.189386200e+01  3.704212000e+01  2.132560000e+00 -3.861380000e-01 -2.182880000e+00  3.076016873e+00  2.223300000e-01
-2.705863000e+01  2.242662100e+01  3.865846000e+01  1.968370000e+00 -3.803790000e-01 -2.112540000e+00  2.912386288e+00  2.008150000e-01
-2.467478000e+01  2.299772300e+01  4.018674000e+01  1.798220000e+00 -3.592770000e-01 -1.987260000e+00  2.704048343e+00  1.781600000e-01
-2.218612000e+01  2.357134300e+01  4.163314000e+01  1.630880000e+00 -3.196570000e-01 -1.805860000e+00  2.454196510e+00  1.572880000e-01
-1.959395000e+01  2.412437800e+01  4.299047000e+01  1.478050000e+00 -2.636220000e-01 -1.576530000e+00  2.177056545e+00  1.428240000e-01
-1.689675000e+01  2.464112200e+01  4.423940000e+01  1.351250000e+00 -1.958780000e-01 -1.313600000e+00  1.894674039e+00  1.392850000e-01
-1.409555000e+01  2.511146300e+01  4.536185000e+01  1.257450000e+00 -1.225370000e-01 -1.034150000e+00  1.632685530e+00  1.479610000e-01
-1.119092000e+01  2.552252100e+01  4.633664000e+01  1.200080000e+00 -4.947900000e-02 -7.543600000e-01  1.418343818e+00  1.652950000e-01
-8.189730000e+00  2.585947820e+01  4.715116200e+01  1.177170000e+00  1.847820000e-02 -4.878380000e-01  1.274384780e+00  1.855010000e-01
-5.094920000e+00  2.607674130e+01  4.781685900e+01  1.182580000e+00  7.874130000e-02 -2.421410000e-01  1.209680914e+00  2.041980000e-01
-1.928990000e+00  2.607558200e+01  4.837189220e+01  1.205410000e+00  1.295820000e-01 -2.210780000e-02  1.212556604e+00  2.216200000e-01
-3.194661000e+01  2.312887800e+01  3.194548000e+01  3.129390000e+00 -9.591220000e-01 -2.903520000e+00  4.375320008e+00  3.966470000e-01
-3.010455000e+01  2.343145600e+01  3.372949000e+01  2.901450000e+00 -9.275440000e-01 -2.906510000e+00  4.210291006e+00  3.614440000e-01
-2.807636000e+01  2.391708800e+01  3.534984000e+01  2.684640000e+00 -9.129120000e-01 -2.889160000e+00  4.048202781e+00  3.305160000e-01
-2.591270000e+01  2.450833500e+01  3.686495000e+01  2.459300000e+00 -8.906650000e-01 -2.821050000e+00  3.847046105e+00  2.971750000e-01
-2.364025000e+01  2.514723200e+01  3.830825000e+01  2.224750000e+00 -8.437680000e-01 -2.684750000e+00  3.587386174e+00  2.592440000e-01
-2.126694000e+01  2.579726500e+01  3.969253000e+01  1.991060000e+00 -7.677350000e-01 -2.477470000e+00  3.269800385e+00  2.181400000e-01
-1.879150000e+01  2.643197900e+01  4.100894000e+01  1.774500000e+00 -6.650210000e-01 -2.209060000e+00  2.910506702e+00  1.782820000e-01
-1.620871000e+01  2.703160100e+01  4.223836000e+01  1.588290000e+00 -5.433990000e-01 -1.896640000e+00  2.532822711e+00  1.467780000e-01
-1.351663000e+01  2.757900100e+01  4.335985000e+01  1.443370000e+00 -4.119990000e-01 -1.559150000e+00  2.164257114e+00  1.312540000e-01
-1.071820000e+01  2.806192200e+01  4.434894000e+01  1.343800000e+00 -2.800780000e-01 -1.217060000e+00  1.834523690e+00  1.350870000e-01
-7.818890000e+00  2.846203100e+01  4.519065300e+01  1.289010000e+00 -1.549690000e-01 -8.863470000e-01  1.571996557e+00  1.535220000e-01
-4.827300000e+00  2.874003880e+01  4.589172800e+01  1.272500000e+00 -4.096120000e-02 -5.782720000e-01  1.398332069e+00  1.774230000e-01
-1.764500000e+00  2.881931840e+01  4.648293900e+01  1.284200000e+00  5.931840000e-02 -2.990610000e-01  1.319896130e+00  2.022670000e-01
-3.036102000e+01  2.480590000e+01  3.039049000e+01  3.808980000e+00 -1.691100000e+00 -3.599510000e+00  5.506779466e+00  5.579350000e-01
-2.865240000e+01  2.515112000e+01  3.204159000e+01  3.527600000e+00 -1.635880000e+00 -3.622410000e+00  5.314312688e+00  5.128090000e-01
-2.674666000e+01  2.568412000e+01  3.353555000e+01  3.253340000e+00 -1.605880000e+00 -3.616450000e+00  5.122673358e+00  4.736700000e-01
-2.470402000e+01  2.633361000e+01  3.493588000e+01  2.964980000e+00 -1.563390000e+00 -3.550120000e+00  4.882483662e+00  4.314140000e-01
-2.255516000e+01  2.704335000e+01  3.628864000e+01  2.661840000e+00 -1.485650000e+00 -3.400360000e+00  4.566727082e+00  3.821390000e-01
-2.030539000e+01  2.777526000e+01  3.760201000e+01  2.359610000e+00 -1.364740000e+00 -3.166990000e+00  4.178528483e+00  3.257920000e-01
-1.795617000e+01  2.849836000e+01  3.886853000e+01  2.074830000e+00 -1.205640000e+00 -2.861470000e+00  3.734501024e+00  2.649650000e-01
-1.549717000e+01  2.919052000e+01  4.006917000e+01  1.826830000e+00 -1.018480000e+00 -2.501830000e+00  3.260945064e+00  2.053810000e-01
-1.292640000e+01  2.983037100e+01  4.117758000e+01  1.626600000e+00 -8.166290000e-01 -2.111420000e+00  2.787616347e+00  1.559960000e-01
-1.024314000e+01  3.040027800e+01  4.217210000e+01  1.481860000e+00 -6.127220000e-01 -1.710900000e+00  2.344891494e+00  1.275960000e-01
-7.455970000e+00  3.087957100e+01  4.303215000e+01  1.391730000e+00 -4.174290000e-01 -1.320850000e+00  1.963620148e+00  1.261350000e-01
-4.573560000e+00  3.123678200e+01  4.376026300e+01  1.350640000e+00 -2.372180000e-01 -9.537370000e-01  1.670363749e+00  1.457440000e-01
-1.616500000e+00  3.140610840e+01  4.438209500e+01  1.348100000e+00 -7.589160000e-02 -6.189050000e-01  1.485320351e+00  1.752950000e-01
-2.876288000e+01  2.618812000e+01  2.882989000e+01  4.455120000e+00 -2.553880000e+00 -4.268110000e+00  6.677361773e+00  7.292130000e-01
-2.722028000e+01  2.657122000e+01  3.030112000e+01  4.136720000e+00 -2.480780000e+00 -4.306880000e+00  6.466524345e+00  6.773870000e-01
-2.545453000e+01  2.715581000e+01  3.162659000e+01  3.817470000e+00 -2.442190000e+00 -4.318410000e+00  6.259874929e+00  6.346850000e-01
-2.354035000e+01  2.786804000e+01  3.289807000e+01  3.470650000e+00 -2.384960000e+00 -4.252930000e+00  5.985052983e+00  5.879950000e-01
-2.151317000e+01  2.865708000e+01  3.414749000e+01  3.102830000e+00 -2.273920000e+00 -4.092510000e+00  5.616663091e+00  5.311290000e-01
-1.939072000e+01  2.948050000e+01  3.538421000e+01  2.728280000e+00 -2.103500000e+00 -3.835790000e+00  5.155725840e+00  4.627290000e-01
-1.716367000e+01  3.030657000e+01  3.659497000e+01  2.375330000e+00 -1.879430000e+00 -3.496030000e+00  4.625654061e+00  3.854070000e-01
-1.482957000e+01  3.110440000e+01  3.775695000e+01  2.061430000e+00 -1.617600000e+00 -3.096050000e+00  4.056063240e+00  3.042690000e-01
-1.237687000e+01  3.185055000e+01  3.884749000e+01  1.805130000e+00 -1.334450000e+00 -2.657510000e+00  3.478736914e+00  2.263560000e-01
-9.808740000e+00  3.252242000e+01  3.983572000e+01  1.612260000e+00 -1.047580000e+00 -2.207280000e+00  2.927266842e+00  1.617570000e-01
-7.130960000e+00  3.309830800e+01  4.070477000e+01  1.485040000e+00 -7.706920000e-01 -1.764230000e+00  2.431422928e+00  1.236780000e-01
-4.353820000e+00  3.354790600e+01  4.145043000e+01  1.416880000e+00 -5.130940000e-01 -1.345570000e+00  2.020240830e+00  1.202760000e-01
-1.493520000e+00  3.381861300e+01  4.209631400e+01  1.398180000e+00 -2.803870000e-01 -9.606860000e-01  1.719430654e+00  1.447780000e-01
-2.734573000e+01  2.721522000e+01  2.740948000e+01  4.999270000e+00 -3.435780000e+00 -4.829520000e+00  7.753808624e+00  8.875510000e-01
-2.600827000e+01  2.763926000e+01  2.855102000e+01  4.704730000e+00 -3.384740000e+00 -4.904980000e+00  7.592745093e+00  8.375920000e-01
-2.437495000e+01  2.827715000e+01  2.963522000e+01  4.378050000e+00 -3.384850000e+00 -4.944780000e+00  7.421278904e+00  8.032960000e-01
-2.256515000e+01  2.906718000e+01  3.073931000e+01  3.992850000e+00 -3.332820000e+00 -4.896690000e+00  7.143396477e+00  7.592640000e-01
-2.064927000e+01  2.994804000e+01  3.187681000e+01  3.557730000e+00 -3.198960000e+00 -4.733190000e+00  6.730072467e+00  6.978510000e-01
-1.863372000e+01  3.088197000e+01  3.303285000e+01  3.113280000e+00 -2.977030000e+00 -4.459150000e+00  6.199938605e+00  6.190210000e-01
-1.652049000e+01  3.182679000e+01  3.418676000e+01  2.682510000e+00 -2.683210000e+00 -4.092240000e+00  5.580493170e+00  5.262760000e-01
-1.429177000e+01  3.275134000e+01  3.531350000e+01  2.301230000e+00 -2.336660000e+00 -3.654500000e+00  4.910296296e+00  4.260430000e-01
-1.194413000e+01  3.362234000e+01  3.637967000e+01  1.981870000e+00 -1.962660000e+00 -3.177330000e+00  4.227915432e+00  3.255350000e-01
-9.472390000e+00  3.441658000e+01  3.736155000e+01  1.738610000e+00 -1.581420000e+00 -2.681450000e+00  3.565645531e+00  2.326560000e-01
-6.884940000e+00  3.510827000e+01  3.823405000e+01  1.570660000e+00 -1.211730000e+00 -2.193950000e+00  2.957816599e+00  1.580270000e-01
-4.190490000e+00  3.566638500e+01  3.899258000e+01  1.473310000e+00 -8.656150000e-01 -1.729420000e+00  2.431218876e+00  1.170850000e-01
-1.404200000e+00  3.604878900e+01  3.965453000e+01  1.436000000e+00 -5.512110000e-01 -1.301470000e+00  2.014883056e+00  1.195290000e-01
-2.637840000e+01  2.783935000e+01  2.638095000e+01  5.368600000e+00 -4.097650000e+00 -5.197050000e+00  8.521850162e+00  9.981670000e-01
-2.521746000e+01  2.831190000e+01  2.681359000e+01  5.251540000e+00 -4.273100000e+00 -5.355410000e+00  8.632408253e+00  9.970180000e-01
-2.363341000e+01  2.902461000e+01  2.752933000e+01  4.979590000e+00 -4.401390000e+00 -5.470670000e+00  8.607948696e+00  9.816020000e-01
-2.188365000e+01  2.989673000e+01  2.844116000e+01  4.561350000e+00 -4.404270000e+00 -5.457840000e+00  8.366093803e+00  9.456180000e-01
-2.003360000e+01  3.089024000e+01  2.946405000e+01  4.065400000e+00 -4.258760000e+00 -5.303950000e+00  7.924417928e+00  8.830320000e-01
-1.811184000e+01  3.195322000e+01  3.055056000e+01  3.528160000e+00 -3.986780000e+00 -5.016440000e+00  7.314847779e+00  7.925780000e-01
-1.608033000e+01  3.304569000e+01  3.165805000e+01  3.018670000e+00 -3.612310000e+00 -4.623950000e+00  6.598641202e+00  6.825350000e-01
-1.394204000e+01  3.411968000e+01  3.274978000e+01  2.551960000e+00 -3.172320000e+00 -4.159220000e+00  5.820242695e+00  5.621030000e-01
-1.166885000e+01  3.514407000e+01  3.380102000e+01  2.165150000e+00 -2.692930000e+00 -3.641980000e+00  5.020335131e+00  4.398820000e-01
-9.266990000e+00  3.608356000e+01  3.477386000e+01  1.863010000e+00 -2.204440000e+00 -3.110140000e+00  4.243033442e+00  3.235180000e-01
-6.737310000e+00  3.690928000e+01  3.565051000e+01  1.650890000e+00 -1.728720000e+00 -2.581490000e+00  3.518238373e+00  2.206380000e-01
-4.092740000e+00  3.759290000e+01  3.641997000e+01  1.521260000e+00 -1.282100000e+00 -2.079030000e+00  2.877564619e+00  1.431820000e-01
-1.349690000e+00  3.809533100e+01  3.709172000e+01  1.464110000e+00 -8.766690000e-01 -1.615280000e+00  2.349743838e+00  1.106080000e-01
-1.320940000e+00  3.996736000e+01  3.444799000e+01  1.485060000e+00 -1.234640000e+00 -1.878010000e+00  2.693818979e+00  1.225220000e-01
-1.339470000e+00  4.169201000e+01  3.171856000e+01  1.503130000e+00 -1.606990000e+00 -2.076440000e+00  3.025461904e+00  1.486650000e-01
-1.381410000e+00  4.328906000e+01  2.893908000e+01  1.520090000e+00 -1.957940000e+00 -2.194920000e+00  3.310872462e+00  1.775160000e-01
-1.429930000e+00  4.478239000e+01  2.612707000e+01  1.538170000e+00 -2.252610000e+00 -2.226930000e+00  3.521283287e+00  2.001870000e-01
-1.476190000e+00  4.619286000e+01  2.328831000e+01  1.558410000e+00 -2.460140000e+00 -2.179690000e+00  3.637578734e+00  2.118770000e-01
-1.515680000e+00  4.753637000e+01  2.042080000e+01  1.581120000e+00 -2.560630000e+00 -2.067200000e+00  3.651038522e+00  2.107970000e-01
-1.546790000e+00  4.881322000e+01  1.751290000e+01  1.605910000e+00 -2.544780000e+00 -1.913100000e+00  3.565782353e+00  1.972560000e-01
-1.569880000e+00  5.001696000e+01  1.455209000e+01  1.631520000e+00 -2.417040000e+00 -1.740910000e+00  3.396278478e+00  1.732970000e-01
-1.586040000e+00  5.112649000e+01  1.152618000e+01  1.656560000e+00 -2.191510000e+00 -1.575820000e+00  3.167035804e+00  1.429090000e-01
-1.597020000e+00  5.211764000e+01  8.428110000e+00  1.678880000e+00 -1.891360000e+00 -1.436590000e+00  2.908551449e+00  1.125250000e-01
-1.604120000e+00  5.295994000e+01  5.256740000e+00  1.696680000e+00 -1.543060000e+00 -1.337460000e+00  2.654911757e+00  9.110620000e-02
-1.608440000e+00  5.362626000e+01  2.017830000e+00  1.707960000e+00 -1.174740000e+00 -1.284370000e+00  2.438595441e+00  8.752210000e-02
-4.050700000e+00  3.933925000e+01  3.377264000e+01  1.563200000e+00 -1.738750000e+00 -2.367360000e+00  3.327347167e+00  1.900260000e-01
-4.086630000e+00  4.093201000e+01  3.104736000e+01  1.602470000e+00 -2.215990000e+00 -2.581640000e+00  3.760769452e+00  2.425930000e-01
-4.165330000e+00  4.240015000e+01  2.828413000e+01  1.639770000e+00 -2.670850000e+00 -2.698870000e+00  4.135962361e+00  2.890860000e-01
-4.262040000e+00  4.377968000e+01  2.550407000e+01  1.674560000e+00 -3.056320000e+00 -2.711930000e+00  4.415858632e+00  3.226390000e-01
-4.362160000e+00  4.510179000e+01  2.271862000e+01  1.706040000e+00 -3.333210000e+00 -2.623380000e+00  4.571978129e+00  3.396450000e-01
-4.458270000e+00  4.638909000e+01  1.991998000e+01  1.733230000e+00 -3.471910000e+00 -2.454020000e+00  4.591346147e+00  3.387350000e-01
-4.547390000e+00  4.764560000e+01  1.709449000e+01  1.755010000e+00 -3.461400000e+00 -2.228510000e+00  4.475221434e+00  3.203620000e-01
-4.628140000e+00  4.886292000e+01  1.422066000e+01  1.770760000e+00 -3.305080000e+00 -1.981340000e+00  4.240855218e+00  2.866480000e-01
-4.700570000e+00  5.001787000e+01  1.128384000e+01  1.779430000e+00 -3.023130000e+00 -1.741160000e+00  3.916289605e+00  2.410990000e-01
-4.764110000e+00  5.107792000e+01  8.268110000e+00  1.780990000e+00 -2.644080000e+00 -1.535390000e+00  3.538432828e+00  1.888940000e-01
-4.818550000e+00  5.200548000e+01  5.171160000e+00  1.774750000e+00 -2.203520000e+00 -1.380240000e+00  3.148062962e+00  1.375840000e-01
-4.861280000e+00  5.276520000e+01  1.994590000e+00  1.761220000e+00 -1.735800000e+00 -1.285410000e+00  2.786965446e+00  9.985330000e-02
-6.678860000e+00  3.851956000e+01  3.299238000e+01  1.726640000e+00 -2.296440000e+00 -2.901620000e+00  4.083420256e+00  2.952560000e-01
-6.721980000e+00  3.996230000e+01  3.027096000e+01  1.801420000e+00 -2.892700000e+00 -3.133040000e+00  4.629121617e+00  3.680100000e-01
-6.825520000e+00  4.128214000e+01  2.752323000e+01  1.872080000e+00 -3.463860000e+00 -3.252770000e+00  5.107202982e+00  4.291310000e-01
-6.958820000e+00  4.252689000e+01  2.478260000e+01  1.934880000e+00 -3.954110000e+00 -3.243400000e+00  5.467942032e+00  4.725020000e-01
-7.104110000e+00  4.374287000e+01  2.205606000e+01  1.985490000e+00 -4.308130000e+00 -3.112940000e+00  5.673847908e+00  4.943350000e-01
-7.252490000e+00  4.496054000e+01  1.933995000e+01  2.020710000e+00 -4.490460000e+00 -2.877050000e+00  5.703062039e+00  4.934470000e-01
-7.399110000e+00  4.619278000e+01  1.660857000e+01  2.038890000e+00 -4.482220000e+00 -2.574430000e+00  5.556532946e+00  4.705000000e-01
-7.542150000e+00  4.742554000e+01  1.384065000e+01  2.038950000e+00 -4.291460000e+00 -2.240350000e+00  5.252914825e+00  4.275510000e-01
-7.678310000e+00  4.863118000e+01  1.100595000e+01  2.022290000e+00 -3.941820000e+00 -1.918050000e+00  4.827682421e+00  3.684560000e-01
-7.805590000e+00  4.976665000e+01  8.088480000e+00  1.990110000e+00 -3.473350000e+00 -1.636620000e+00  4.324722310e+00  2.985560000e-01
-7.919310000e+00  5.078882000e+01  5.077210000e+00  1.945790000e+00 -2.928180000e+00 -1.420190000e+00  3.791737922e+00  2.245120000e-01
-8.014300000e+00  5.165159000e+01  1.974090000e+00  1.891700000e+00 -2.351410000e+00 -1.278310000e+00  3.277458518e+00  1.561390000e-01
-9.182070000e+00  3.754035000e+01  3.211122000e+01  1.987930000e+00 -2.891650000e+00 -3.461780000e+00  4.929241947e+00  4.210400000e-01
-9.220800000e+00  3.881624000e+01  2.939012000e+01  2.113200000e+00 -3.615760000e+00 -3.716880000e+00  5.599511724e+00  5.127020000e-01
-9.334130000e+00  3.996406000e+01  2.666464000e+01  2.232870000e+00 -4.316940000e+00 -3.837360000e+00  6.192496360e+00  5.882640000e-01
-9.491720000e+00  4.105514000e+01  2.396283000e+01  2.336280000e+00 -4.919860000e+00 -3.811170000e+00  6.647423819e+00  6.407440000e-01
-9.672200000e+00  4.214548000e+01  2.130805000e+01  2.414800000e+00 -5.361520000e+00 -3.630950000e+00  6.910930014e+00  6.667830000e-01
-9.867370000e+00  4.328637000e+01  1.868157000e+01  2.462630000e+00 -5.586630000e+00 -3.328430000e+00  6.953662886e+00  6.656180000e-01
-1.007259000e+01  4.448782000e+01  1.606511000e+01  2.475410000e+00 -5.577180000e+00 -2.935890000e+00  6.771413554e+00  6.378320000e-01
-1.028200000e+01  4.574034000e+01  1.341326000e+01  2.454000000e+00 -5.339660000e+00 -2.511740000e+00  6.390846794e+00  5.856670000e-01
-1.049182000e+01  4.700244000e+01  1.069802000e+01  2.400180000e+00 -4.911560000e+00 -2.096980000e+00  5.855050024e+00  5.128500000e-01
-1.069418000e+01  4.822416000e+01  7.888720000e+00  2.320820000e+00 -4.339840000e+00 -1.737480000e+00  5.219123820e+00  4.255010000e-01
-1.088288000e+01  4.934537000e+01  4.975530000e+00  2.221120000e+00 -3.682630000e+00 -1.454670000e+00  4.539956231e+00  3.309890000e-01
-1.104369000e+01  5.031788000e+01  1.953940000e+00  2.110310000e+00 -2.989120000e+00 -1.264360000e+00  3.871285688e+00  2.388180000e-01
-1.154722000e+01  3.643498000e+01  3.113749000e+01  2.352780000e+00 -3.502020000e+00 -4.031510000e+00  5.835476903e+00  5.594420000e-01
-1.156322000e+01  3.752320000e+01  2.842816000e+01  2.547780000e+00 -4.361800000e+00 -4.305840000e+00  6.637525162e+00  6.702260000e-01
-1.167202000e+01  3.848511000e+01  2.571729000e+01  2.731980000e+00 -5.196890000e+00 -4.439710000e+00  7.360869872e+00  7.596040000e-01
-1.183853000e+01  3.939336000e+01  2.306631000e+01  2.889470000e+00 -5.930640000e+00 -4.390690000e+00  7.924625314e+00  8.201650000e-01
-1.204318000e+01  4.034582000e+01  2.048040000e+01  3.005820000e+00 -6.461180000e+00 -4.169600000e+00  8.256353010e+00  8.482850000e-01
-1.228047000e+01  4.139740000e+01  1.796354000e+01  3.068530000e+00 -6.730600000e+00 -3.786460000e+00  8.309881591e+00  8.452320000e-01
-1.254305000e+01  4.257554000e+01  1.546694000e+01  3.074950000e+00 -6.705460000e+00 -3.306060000e+00  8.083844632e+00  8.128830000e-01
-1.282642000e+01  4.385708000e+01  1.295361000e+01  3.022580000e+00 -6.405920000e+00 -2.776390000e+00  7.607899995e+00  7.519060000e-01
-1.312021000e+01  4.519033000e+01  1.036408000e+01  2.919790000e+00 -5.878670000e+00 -2.272920000e+00  6.946229189e+00  6.656270000e-01
-1.341533000e+01  4.650091000e+01  7.675690000e+00  2.774670000e+00 -5.196090000e+00 -1.829510000e+00  6.168083311e+00  5.605590000e-01
-1.369220000e+01  4.772730000e+01  4.865390000e+00  2.603800000e+00 -4.417700000e+00 -1.483110000e+00  5.338114180e+00  4.456590000e-01
-1.393805000e+01  4.880715000e+01  1.933290000e+00  2.416950000e+00 -3.608850000e+00 -1.243810000e+00  4.518020467e+00  3.318940000e-01
-1.376385000e+01  3.523488000e+01  3.010443000e+01  2.823150000e+00 -4.100120000e+00 -4.574570000e+00  6.760758140e+00  7.037300000e-01
-1.374334000e+01  3.612854000e+01  2.739562000e+01  3.101660000e+00 -5.092460000e+00 -4.885380000e+00  7.708461672e+00  8.345480000e-01
-1.382484000e+01  3.687276000e+01  2.471739000e+01  3.372160000e+00 -6.080240000e+00 -5.020610000e+00  8.575972615e+00  9.375040000e-01
-1.398225000e+01  3.759213000e+01  2.209472000e+01  3.599750000e+00 -6.938870000e+00 -4.976280000e+00  9.266578634e+00  9.999410000e-01
-1.420505000e+01  3.837190000e+01  1.959639000e+01  3.758950000e+00 -7.583100000e+00 -4.702610000e+00  9.682337090e+00  1.023680000e+00
-1.447571000e+01  3.933372000e+01  1.719016000e+01  3.843290000e+00 -7.888280000e+00 -4.245840000e+00  9.747973979e+00  1.017150000e+00
-1.480087000e+01  4.050380000e+01  1.484607000e+01  3.835130000e+00 -7.823200000e+00 -3.651930000e+00  9.447077489e+00  9.818870000e-01
-1.516834000e+01  4.184063000e+01  1.246484000e+01  3.740660000e+00 -7.427370000e+00 -3.032160000e+00  8.851686654e+00  9.154090000e-01
-1.556594000e+01  4.325355000e+01  1.002178000e+01  3.567060000e+00 -6.786450000e+00 -2.425220000e+00  8.041238256e+00  8.165990000e-01
-1.596434000e+01  4.466851000e+01  7.451500000e+00  3.342660000e+00 -5.973490000e+00 -1.909700000e+00  7.106540139e+00  6.937580000e-01
-1.635182000e+01  4.599321000e+01  4.750130000e+00  3.078180000e+00 -5.079790000e+00 -1.501570000e+00  6.126513774e+00  5.592300000e-01
-1.669539000e+01  4.717255000e+01  1.909990000e+00  2.801610000e+00 -4.160450000e+00 -1.218510000e+00  5.161698307e+00  4.253880000e-01
-1.584716000e+01  3.397879000e+01  2.902614000e+01  3.374840000e+00 -4.653210000e+00 -5.077860000e+00  7.669848141e+00  8.470330000e-01
-1.575387000e+01  3.466672000e+01  2.635508000e+01  3.774130000e+00 -5.776280000e+00 -5.393920000e+00  8.758072897e+00  1.000380000e+00
-1.579328000e+01  3.520160000e+01  2.366166000e+01  4.142720000e+00 -6.897400000e+00 -5.583340000e+00  9.793362105e+00  1.123080000e+00
-1.591591000e+01  3.563540000e+01  2.110365000e+01  4.464090000e+00 -7.966600000e+00 -5.513350000e+00  1.066732597e+01  1.197410000e+00
-1.611539000e+01  3.622975000e+01  1.866108000e+01  4.703610000e+00 -8.726250000e+00 -5.224920000e+00  1.120585450e+01  1.215250000e+00
-1.642857000e+01  3.710598000e+01  1.637924000e+01  4.797430000e+00 -9.052020000e+00 -4.688760000e+00  1.126671518e+01  1.197860000e+00
-1.683189000e+01  3.831979000e+01  1.417542000e+01  4.757110000e+00 -8.887210000e+00 -4.000580000e+00  1.084514811e+01  1.150650000e+00
-1.732227000e+01  3.975205000e+01  1.199235000e+01  4.577730000e+00 -8.347950000e+00 -3.232650000e+00  1.005454659e+01  1.066920000e+00
-1.783293000e+01  4.129265000e+01  9.672150000e+00  4.323070000e+00 -7.540350000e+00 -2.553850000e+00  9.059136944e+00  9.527350000e-01
-1.836912000e+01  4.279668000e+01  7.227420000e+00  3.983880000e+00 -6.607320000e+00 -1.966980000e+00  7.962222539e+00  8.137600000e-01
-1.887295000e+01  4.421145000e+01  4.631260000e+00  3.618050000e+00 -5.602550000e+00 -1.508540000e+00  6.837729538e+00  6.619000000e-01
-1.932970000e+01  4.546983000e+01  1.883010000e+00  3.236300000e+00 -4.593170000e+00 -1.189390000e+00  5.743300176e+00  5.105710000e-01
-1.778910000e+01  3.271679000e+01  2.795892000e+01  4.006900000e+00 -5.116210000e+00 -5.487080000e+00  8.505227763e+00  9.787270000e-01
-1.765254000e+01  3.319692000e+01  2.529240000e+01  4.496460000e+00 -6.360080000e+00 -5.846600000e+00  9.739173563e+00  1.169010000e+00
-1.754163000e+01  3.345978000e+01  2.269379000e+01  5.070370000e+00 -7.664220000e+00 -5.986210000e+00  1.096738940e+01  1.377330000e+00
-1.760056000e+01  3.364657000e+01  2.005658000e+01  5.511440000e+00 -8.894430000e+00 -6.041420000e+00  1.208245056e+01  1.525370000e+00
-1.763086000e+01  3.387441000e+01  1.768143000e+01  5.972140000e+00 -9.939590000e+00 -5.732570000e+00  1.293538806e+01  1.532020000e+00
-1.785494000e+01  3.468790000e+01  1.547456000e+01  6.204060000e+00 -1.025510000e+01 -5.171440000e+00  1.305378214e+01  1.478600000e+00
-1.865835000e+01  3.608279000e+01  1.354754000e+01  5.806650000e+00 -9.845210000e+00 -4.260460000e+00  1.219823199e+01  1.382800000e+00
-1.927868000e+01  3.773346000e+01  1.149532000e+01  5.533320000e+00 -9.031540000e+00 -3.418680000e+00  1.112985705e+01  1.224690000e+00
-1.999462000e+01  3.938508000e+01  9.339410000e+00  5.101380000e+00 -8.067920000e+00 -2.635590000e+00  9.902613073e+00  1.063630000e+00
-2.066078000e+01  4.097742000e+01  7.010680000e+00  4.655220000e+00 -7.012580000e+00 -1.994220000e+00  8.650102018e+00  9.089680000e-01
-2.129872000e+01  4.245064000e+01  4.511280000e+00  4.169280000e+00 -5.925360000e+00 -1.501820000e+00  7.399206049e+00  7.439550000e-01
-2.186763000e+01  4.375615000e+01  1.850530000e+00  3.683370000e+00 -4.855850000e+00 -1.158370000e+00  6.203895134e+00  5.791690000e-01
-1.966697000e+01  3.148853000e+01  2.692782000e+01  4.627030000e+00 -5.456470000e+00 -5.781180000e+00  9.198071193e+00  1.086640000e+00
-1.936610000e+01  3.177979000e+01  2.429742000e+01  5.331900000e+00 -6.788210000e+00 -6.157580000e+00  1.060305353e+01  1.340060000e+00
-1.923116000e+01  3.178039000e+01  2.164398000e+01  5.982840000e+00 -8.253610000e+00 -6.401020000e+00  1.203700584e+01  1.671420000e+00
-1.850218000e+01  3.100650000e+01  1.930521000e+01  7.263820000e+00 -1.034750000e+01 -6.207790000e+00  1.408440606e+01  1.775580000e+00
-1.810090000e+01  3.094200000e+01  1.668573000e+01  8.206100000e+00 -1.159500000e+01 -6.196270000e+00  1.549767286e+01  1.630220000e+00
-1.858694000e+01  3.194870000e+01  1.410212000e+01  8.220060000e+00 -1.163430000e+01 -6.069880000e+00  1.548450083e+01  1.569380000e+00
-2.000228000e+01  3.380980000e+01  1.246080000e+01  7.248720000e+00 -1.068520000e+01 -4.934200000e+00  1.382258190e+01  1.551510000e+00
-2.121224000e+01  3.588344000e+01  1.104909000e+01  6.418760000e+00 -9.386560000e+00 -3.516910000e+00  1.190279986e+01  1.378910000e+00
-2.209042000e+01  3.764847000e+01  9.044380000e+00  5.851580000e+00 -8.258530000e+00 -2.650620000e+00  1.046279564e+01  1.141340000e+00
-2.291822000e+01  3.928885000e+01  6.805590000e+00  5.263780000e+00 -7.116150000e+00 -1.987910000e+00  9.071866229e+00  9.701120000e-01
-2.367446000e+01  4.077085000e+01  4.391260000e+00  4.674540000e+00 -5.993150000e+00 -1.480440000e+00  7.743440691e+00  7.979760000e-01
-2.435298000e+01  4.207374000e+01  1.809840000e+00  4.088020000e+00 -4.910260000e+00 -1.128260000e+00  6.488106921e+00  6.241860000e-01
-2.145875000e+01  3.035715000e+01  2.596521000e+01  5.232250000e+00 -5.619850000e+00 -5.944790000e+00  9.710802347e+00  1.161000000e+00
-2.111060000e+01  3.047691000e+01  2.343679000e+01  6.041400000e+00 -7.001090000e+00 -6.281210000e+00  1.117888072e+01  1.484090000e+00
-2.066095000e+01  2.989520000e+01  2.103171000e+01  7.062050000e+00 -8.932800000e+00 -6.333290000e+00  1.302988980e+01  1.860310000e+00
-2.003451000e+01  2.875240000e+01  1.862941000e+01  8.292490000e+00 -1.128660000e+01 -6.258590000e+00  1.534023073e+01  1.840900000e+00
-2.002387000e+01  2.847150000e+01  1.575388000e+01  8.889130000e+00 -1.265050000e+01 -6.562120000e+00  1.679622581e+01  1.595390000e+00
-2.071543000e+01  2.978590000e+01  1.307792000e+01  8.738570000e+00 -1.229310000e+01 -6.590080000e+00  1.645940666e+01  1.584290000e+00
-2.201822000e+01  3.212960000e+01  1.166220000e+01  7.915780000e+00 -1.078140000e+01 -5.294800000e+00  1.438516826e+01  1.651470000e+00
-2.325325000e+01  3.444607000e+01  1.070600000e+01  7.091750000e+00 -9.172930000e+00 -3.492000000e+00  1.210907209e+01  1.478270000e+00
-2.426397000e+01  3.618860000e+01  8.789380000e+00  6.417030000e+00 -8.012400000e+00 -2.609620000e+00  1.059183385e+01  1.181440000e+00
-2.520578000e+01  3.778391000e+01  6.623230000e+00  5.735220000e+00 -6.872090000e+00 -1.948370000e+00  9.160486618e+00  9.958830000e-01
-2.606404000e+01  3.920165000e+01  4.275550000e+00  5.058960000e+00 -5.782350000e+00 -1.449050000e+00  7.818464920e+00  8.191190000e-01
-2.682624000e+01  4.044691000e+01  1.765250000e+00  4.398760000e+00 -4.739090000e+00 -1.100850000e+00  6.558958323e+00  6.410270000e-01
-2.323200000e+01  2.937896000e+01  2.520923000e+01  5.689000000e+00 -5.546040000e+00 -5.915770000e+00  9.905534583e+00  1.194130000e+00
-2.296529000e+01  2.938834000e+01  2.282561000e+01  6.491710000e+00 -6.875660000e+00 -6.195390000e+00  1.130485986e+01  1.537540000e+00
-2.259306000e+01  2.861993000e+01  2.054809000e+01  7.501940000e+00 -8.856070000e+00 -6.187910000e+00  1.315292020e+01  1.945350000e+00
-2.243690000e+01  2.762160000e+01  1.806626000e+01  8.320100000e+00 -1.094840000e+01 -6.251740000e+00  1.510548839e+01  2.000400000e+00
-2.286832000e+01  2.775180000e+01  1.547289000e+01  8.524680000e+00 -1.179720000e+01 -6.330110000e+00  1.587181116e+01  1.848100000e+00
-2.361868000e+01  2.916100000e+01  1.326832000e+01  8.357320000e+00 -1.125400000e+01 -5.944680000e+00  1.522617923e+01  1.831360000e+00
-2.447676000e+01  3.139609000e+01  1.187921000e+01  8.016240000e+00 -9.771910000e+00 -4.685790000e+00  1.347987228e+01  1.750420000e+00
-2.555691000e+01  3.343247000e+01  1.050390000e+01  7.378090000e+00 -8.376530000e+00 -3.365100000e+00  1.165874628e+01  1.472290000e+00
-2.658942000e+01  3.500260000e+01  8.617820000e+00  6.708580000e+00 -7.332400000e+00 -2.519180000e+00  1.025258032e+01  1.178720000e+00
-2.758716000e+01  3.643831000e+01  6.488080000e+00  5.991840000e+00 -6.307690000e+00 -1.889320000e+00  8.902731591e+00  9.859170000e-01
-2.850560000e+01  3.773061000e+01  4.188640000e+00  5.272400000e+00 -5.312390000e+00 -1.410160000e+00  7.616314102e+00  8.044590000e-01
-2.932448000e+01  3.886943000e+01  1.726380000e+00  4.567520000e+00 -4.356570000e+00 -1.079320000e+00  6.403660889e+00  6.272080000e-01
-2.498915000e+01  2.859859000e+01  2.483773000e+01  5.885850000e+00 -5.174410000e+00 -5.676270000e+00  9.676662141e+00  1.178520000e+00
-2.495101000e+01  2.861203000e+01  2.263486000e+01  6.577990000e+00 -6.268970000e+00 -5.900140000e+00  1.083427844e+01  1.439620000e+00
-2.487386000e+01  2.860700000e+01  2.029031000e+01  7.393140000e+00 -7.325000000e+00 -6.029690000e+00  1.202793854e+01  1.804830000e+00
-2.506367000e+01  2.799258000e+01  1.810330000e+01  7.942330000e+00 -8.912420000e+00 -5.846700000e+00  1.329269487e+01  2.024750000e+00
-2.557773000e+01  2.818984000e+01  1.583286000e+01  8.126270000e+00 -9.596160000e+00 -5.642140000e+00  1.378246330e+01  2.004140000e+00
-2.616742000e+01  2.964438000e+01  1.399606000e+01  8.172580000e+00 -8.924620000e+00 -4.928940000e+00  1.306653571e+01  1.877810000e+00
-2.697384000e+01  3.125939000e+01  1.240238000e+01  7.928160000e+00 -7.991610000e+00 -3.914620000e+00  1.191829691e+01  1.634860000e+00
-2.804537000e+01  3.260417000e+01  1.054854000e+01  7.336630000e+00 -7.225830000e+00 -3.114460000e+00  1.075818851e+01  1.346770000e+00
-2.906625000e+01  3.394068000e+01  8.580500000e+00  6.710750000e+00 -6.365320000e+00 -2.393500000e+00  9.554072771e+00  1.117330000e+00
-3.007552000e+01  3.516937000e+01  6.448450000e+00  6.009480000e+00 -5.508630000e+00 -1.809550000e+00  8.350648211e+00  9.314090000e-01
-3.101904000e+01  3.630477000e+01  4.153650000e+00  5.284960000e+00 -4.641230000e+00 -1.368050000e+00  7.165429430e+00  7.523860000e-01
-3.186714000e+01  3.730521000e+01  1.706470000e+00  4.565860000e+00 -3.803790000e+00 -1.062130000e+00  6.036887943e+00  5.818560000e-01
-2.665186000e+01  2.789541000e+01  2.495784000e+01  5.790140000e+00 -4.594590000e+00 -5.323160000e+00  9.108897347e+00  1.105000000e+00
-2.689002000e+01  2.801981000e+01  2.297256000e+01  6.421980000e+00 -5.263190000e+00 -5.444440000e+00  9.928994058e+00  1.259330000e+00
-2.714754000e+01  2.810515000e+01  2.087685000e+01  7.051460000e+00 -6.054850000e+00 -5.364150000e+00  1.073118828e+01  1.460760000e+00
-2.750637000e+01  2.833590000e+01  1.869656000e+01  7.536630000e+00 -6.686100000e+00 -5.187440000e+00  1.133200153e+01  1.648190000e+00
-2.802145000e+01  2.885066000e+01  1.660074000e+01  7.801550000e+00 -6.969340000e+00 -4.815260000e+00  1.151618910e+01  1.684180000e+00
-2.875441000e+01  2.965991000e+01  1.460980000e+01  7.772590000e+00 -6.873090000e+00 -4.262200000e+00  1.121690110e+01  1.550760000e+00
-2.962405000e+01  3.067639000e+01  1.270144000e+01  7.520950000e+00 -6.478610000e+00 -3.568560000e+00  1.054854004e+01  1.349840000e+00
-3.060840000e+01  3.175288000e+01  1.078239000e+01  7.065600000e+00 -5.931120000e+00 -2.840610000e+00  9.652458391e+00  1.164380000e+00
-3.165044000e+01  3.283468000e+01  8.709890000e+00  6.458560000e+00 -5.283320000e+00 -2.232110000e+00  8.637637556e+00  9.967320000e-01
-3.265427000e+01  3.388590000e+01  6.514740000e+00  5.795730000e+00 -4.570100000e+00 -1.718060000e+00  7.578128424e+00  8.299120000e-01
-3.360351000e+01  3.485078000e+01  4.181680000e+00  5.090490000e+00 -3.847220000e+00 -1.321720000e+00  6.516220832e+00  6.644340000e-01
-3.445711000e+01  3.570442000e+01  1.708800000e+00  4.383890000e+00 -3.138580000e+00 -1.049400000e+00  5.492760354e+00  5.075360000e-01
-3.707545000e+01  3.400628000e+01  1.734240000e+00  4.031550000e+00 -2.428720000e+00 -1.035360000e+00  4.819133384e+00  4.129090000e-01
-3.968195000e+01  3.215188000e+01  1.798340000e+00  3.543050000e+00 -1.740120000e+00 -1.018560000e+00  4.076602187e+00  3.103420000e-01
-4.223016000e+01  3.010053000e+01  1.885351000e+00  2.955840000e+00 -1.123470000e+00 -9.958490000e-01  3.315251148e+00  2.158330000e-01
-4.466480000e+01  2.782302800e+01  1.986327000e+00  2.319200000e+00 -6.159720000e-01 -9.640730000e-01  2.586029175e+00  1.538130000e-01
-4.692925000e+01  2.530954000e+01  2.096562000e+00  1.683750000e+00 -2.384600000e-01 -9.212380000e-01  1.934051883e+00  1.431380000e-01
-4.896673000e+01  2.256928062e+01  2.215925000e+00  1.098270000e+00  7.280620000e-03 -8.642750000e-01  1.397576930e+00  1.699260000e-01
-5.073294300e+01  1.962693100e+01  2.344689000e+00  6.010570000e-01  1.349310000e-01 -7.914110000e-01  1.002899428e+00  2.021640000e-01
-5.219909600e+01  1.652077800e+01  2.483593000e+00  2.179040000e-01  1.697780000e-01 -7.010070000e-01  7.534703289e-01  2.225860000e-01
-5.334724460e+01  1.329271600e+01  2.633297000e+00 -4.024460000e-02  1.427160000e-01 -5.923030000e-01  6.105819587e-01  2.287210000e-01
-5.417995300e+01  9.988944800e+00  2.793926000e+00 -1.769530000e-01  8.634480000e-02 -4.647740000e-01  5.047600022e-01  2.260440000e-01
-5.470598700e+01  6.647370900e+00  2.964507000e+00 -2.049870000e-01  2.657090000e-02 -3.197930000e-01  3.807797864e-01  2.249260000e-01
-5.494688800e+01  3.308499390e+00  3.143123000e+00 -1.468880000e-01 -7.800610000e-03 -1.607770000e-01  2.179132345e-01  2.446850000e-01
-3.623407000e+01  3.330412000e+01  4.268830000e+00  4.706930000e+00 -3.002880000e+00 -1.267770000e+00  5.725357551e+00  5.507900000e-01
-3.887057000e+01  3.159189000e+01  4.425280000e+00  4.168430000e+00 -2.186110000e+00 -1.207120000e+00  4.859220544e+00  4.251570000e-01
-4.146311000e+01  2.967202000e+01  4.621550000e+00  3.517890000e+00 -1.448980000e+00 -1.138250000e+00  3.971234840e+00  3.014140000e-01
-4.395873000e+01  2.751156100e+01  4.835530000e+00  2.803270000e+00 -8.344390000e-01 -1.061270000e+00  3.111415297e+00  1.998080000e-01
-4.629332000e+01  2.509688200e+01  5.055250000e+00  2.082680000e+00 -3.671180000e-01 -9.754500000e-01  2.328912689e+00  1.479140000e-01
-4.840593000e+01  2.243408400e+01  5.272820000e+00  1.409070000e+00 -5.191600000e-02 -8.819800000e-01  1.663148297e+00  1.534800000e-01
-5.024517200e+01  1.954876200e+01  5.485767000e+00  8.278280000e-01  1.247620000e-01 -7.800330000e-01  1.144253571e+00  1.859830000e-01
-5.177532000e+01  1.648050700e+01  5.692238000e+00  3.696800000e-01  1.895070000e-01 -6.698620000e-01  7.882203401e-01  2.133200000e-01
-5.297733700e+01  1.327524700e+01  5.892196000e+00  4.966300000e-02  1.762470000e-01 -5.508040000e-01  5.804433349e-01  2.252830000e-01
-5.384939500e+01  9.983006000e+00  6.085777000e+00 -1.333950000e-01  1.211060000e-01 -4.221230000e-01  4.589648313e-01  2.248830000e-01
-5.439918400e+01  6.645976600e+00  6.273848000e+00 -1.911840000e-01  5.347660000e-02 -2.840520000e-01  3.465495741e-01  2.224980000e-01
-5.464685200e+01  3.306425990e+00  6.457197000e+00 -1.438520000e-01  4.525990000e-03 -1.391030000e-01  2.001587547e-01  2.386510000e-01
-3.529555000e+01  3.249850000e+01  6.681960000e+00  5.373450000e+00 -3.588500000e+00 -1.609740000e+00  6.659020951e+00  6.965500000e-01
-3.794948000e+01  3.093915000e+01  6.947170000e+00  4.786520000e+00 -2.637850000e+00 -1.490130000e+00  5.664760697e+00  5.484450000e-01
-4.057810000e+01  2.915811000e+01  7.264990000e+00  4.069900000e+00 -1.778890000e+00 -1.362510000e+00  4.645962671e+00  3.993630000e-01
-4.311923000e+01  2.712114000e+01  7.606950000e+00  3.281770000e+00 -1.056860000e+00 -1.224750000e+00  3.658822209e+00  2.668120000e-01
-4.550729000e+01  2.481141100e+01  7.948600000e+00  2.479710000e+00 -4.995890000e-01 -1.082500000e+00  2.751428193e+00  1.759450000e-01
-4.768000000e+01  2.223352800e+01  8.277588000e+00  1.723000000e+00 -1.144720000e-01 -9.383120000e-01  1.965263913e+00  1.500370000e-01
-4.957852000e+01  1.941380900e+01  8.585732000e+00  1.061480000e+00  1.118090000e-01 -7.951680000e-01  1.330989553e+00  1.733900000e-01
-5.116407800e+01  1.639247600e+01  8.868973000e+00  5.309220000e-01  2.074760000e-01 -6.546270000e-01  8.680212957e-01  2.046660000e-01
-5.241206800e+01  1.322008300e+01  9.125663000e+00  1.499320000e-01  2.090830000e-01 -5.171370000e-01  5.776036550e-01  2.218110000e-01
-5.331820990e+01  9.949967000e+00  9.356249000e+00 -8.020990000e-02  1.560670000e-01 -3.816510000e-01  4.200571656e-01  2.236960000e-01
-5.389085900e+01  6.627114300e+00  9.562693000e+00 -1.698590000e-01  8.101430000e-02 -2.477070000e-01  3.110854457e-01  2.203830000e-01
-5.414419400e+01  3.295642000e+00  9.748993000e+00 -1.361940000e-01  1.724200000e-02 -1.168070000e-01  1.802497363e-01  2.321180000e-01
-3.428874000e+01  3.162824000e+01  8.976130000e+00  6.002260000e+00 -4.149760000e+00 -2.050870000e+00  7.579821958e+00  8.406260000e-01
-3.696151000e+01  3.022468000e+01  9.359800000e+00  5.355490000e+00 -3.067320000e+00 -1.863200000e+00  6.446800708e+00  6.695650000e-01
-3.960652000e+01  2.858321000e+01  9.815280000e+00  4.579480000e+00 -2.090790000e+00 -1.659720000e+00  5.300727344e+00  4.975610000e-01
-4.217537000e+01  2.666948000e+01  1.029511000e+01  3.722630000e+00 -1.266520000e+00 -1.450890000e+00  4.191315882e+00  3.403370000e-01
-4.459939000e+01  2.446482400e+01  1.076985000e+01  2.848610000e+00 -6.251760000e-01 -1.239150000e+00  3.168740552e+00  2.184590000e-01
-4.681034000e+01  2.197565000e+01  1.122021000e+01  2.018660000e+00 -1.743500000e-01 -1.032790000e+00  2.274212238e+00  1.598910000e-01
-4.874972000e+01  1.922574350e+01  1.163361300e+01  1.286280000e+00  9.874350000e-02 -8.373870000e-01  1.538012843e+00  1.660990000e-01
-5.037416100e+01  1.625911100e+01  1.200096700e+01  6.908390000e-01  2.241110000e-01 -6.570330000e-01  9.793756314e-01  1.971320000e-01
-5.165604300e+01  1.312846100e+01  1.232060300e+01  2.539570000e-01  2.404610000e-01 -4.933970000e-01  6.047778518e-01  2.183690000e-01
-5.258981630e+01  9.889835000e+00  1.259139200e+01 -2.081630000e-02  1.900350000e-01 -3.456080000e-01  3.949576044e-01  2.226140000e-01
-5.318231500e+01  6.590435000e+00  1.281745800e+01 -1.423150000e-01  1.081350000e-01 -2.125420000e-01  2.777063903e-01  2.191660000e-01
-5.344246700e+01  3.276178600e+00  1.300613570e+01 -1.244670000e-01  2.997860000e-02 -9.486430000e-02  1.593423546e-01  2.258830000e-01
-3.327157000e+01  3.072896000e+01  1.115026000e+01  6.536430000e+00 -4.650040000e+00 -2.585740000e+00  8.428157598e+00  9.742630000e-01
-3.594138000e+01  2.947987000e+01  1.168042000e+01  5.839620000e+00 -3.443130000e+00 -2.300580000e+00  7.158838892e+00  7.798100000e-01
-3.858926000e+01  2.797237000e+01  1.227666000e+01  5.007740000e+00 -2.358630000e+00 -2.017340000e+00  5.891541060e+00  5.875150000e-01
-4.116295000e+01  2.617466000e+01  1.290260000e+01  4.093050000e+00 -1.445340000e+00 -1.725400000e+00  4.671088864e+00  4.104110000e-01
-4.359621000e+01  2.407152200e+01  1.351785000e+01  3.160790000e+00 -7.314780000e-01 -1.436150000e+00  3.547982569e+00  2.653300000e-01
-4.582100000e+01  2.166734800e+01  1.409649000e+01  2.273000000e+00 -2.246520000e-01 -1.158510000e+00  2.561082377e+00  1.790270000e-01
-4.777747000e+01  1.898982770e+01  1.462022400e+01  1.484530000e+00  8.882770000e-02 -9.027760000e-01  1.739748311e+00  1.652370000e-01
-4.942123400e+01  1.608307500e+01  1.507775500e+01  8.367660000e-01  2.400750000e-01 -6.752450000e-01  1.101711920e+00  1.919310000e-01
-5.072253200e+01  1.300166100e+01  1.546362000e+01  3.534680000e-01  2.696610000e-01 -4.793800000e-01  6.538056793e-01  2.157280000e-01
-5.167305040e+01  9.802221000e+00  1.577834900e+01  3.994960000e-02  2.217210000e-01 -3.146510000e-01  3.869902120e-01  2.221440000e-01
-5.227790200e+01  6.535613000e+00  1.602552800e+01 -1.109020000e-01  1.337130000e-01 -1.794720000e-01  2.497771382e-01  2.192800000e-01
-5.254464900e+01  3.247734400e+00  1.621498170e+01 -1.096490000e-01  4.213440000e-02 -7.401830000e-02  1.388413469e-01  2.205410000e-01
-3.228513000e+01  2.984462000e+01  1.325858000e+01  6.936870000e+00 -5.047380000e+00 -3.150420000e+00  9.139001939e+00  1.090640000e+00
-3.493323000e+01  2.874385000e+01  1.392073000e+01  6.197770000e+00 -3.726150000e+00 -2.780270000e+00  7.747673720e+00  8.702500000e-01
-3.756408000e+01  2.735551000e+01  1.466807000e+01  5.316920000e+00 -2.555490000e+00 -2.404930000e+00  6.370545952e+00  6.616990000e-01
-4.011634000e+01  2.565926000e+01  1.544162000e+01  4.360660000e+00 -1.573740000e+00 -2.027380000e+00  5.059869849e+00  4.696020000e-01
-4.252812000e+01  2.364358500e+01  1.619873000e+01  3.388880000e+00 -8.064150000e-01 -1.655270000e+00  3.856777357e+00  3.079980000e-01
-4.473606000e+01  2.131884500e+01  1.690721000e+01  2.463940000e+00 -2.581550000e-01 -1.302790000e+00  2.799090229e+00  2.013200000e-01
-4.668196000e+01  1.871025070e+01  1.754334200e+01  1.639040000e+00  8.525070000e-02 -9.826580000e-01  1.912939243e+00  1.695770000e-01
-4.831872400e+01  1.586507500e+01  1.809173900e+01  9.562760000e-01  2.560750000e-01 -7.042610000e-01  1.214916355e+00  1.895790000e-01
-4.962000900e+01  1.283779700e+01  1.854619600e+01  4.399910000e-01  2.957970000e-01 -4.728040000e-01  7.103742448e-01  2.143070000e-01
-5.057398840e+01  9.686321000e+00  1.890470000e+01  9.701160000e-02  2.497210000e-01 -2.883000000e-01  3.935590405e-01  2.224400000e-01
-5.118525250e+01  6.461479000e+00  1.917301800e+01 -7.825250000e-02  1.563790000e-01 -1.489820000e-01  2.297247956e-01  2.206860000e-01
-5.145394650e+01  3.209930500e+00  1.936420370e+01 -9.294650000e-02  5.303050000e-02 -5.479630000e-02  1.202244579e-01  2.164120000e-01
-3.135723000e+01  2.903432000e+01  1.531807000e+01  7.176770000e+00 -5.282680000e+00 -3.718930000e+00  9.656250616e+00  1.181260000e+00
-3.398379000e+01  2.805572000e+01  1.612334000e+01  6.385210000e+00 -3.880280000e+00 -3.252660000e+00  8.149066002e+00  9.325700000e-01
-3.656626000e+01  2.675965000e+01  1.701362000e+01  5.475740000e+00 -2.655350000e+00 -2.789380000e+00  6.694419538e+00  7.144280000e-01
-3.906528000e+01  2.514032000e+01  1.793128000e+01  4.497720000e+00 -1.635680000e+00 -2.325720000e+00  5.321081448e+00  5.122390000e-01
-4.142155000e+01  2.319490100e+01  1.882497000e+01  3.511450000e+00 -8.390990000e-01 -1.873030000e+00  4.067260702e+00  3.403270000e-01
-4.357763000e+01  2.093593900e+01  1.965757000e+01  2.573370000e+00 -2.690610000e-01 -1.447430000e+00  2.964739547e+00  2.208970000e-01
-4.547905000e+01  1.839174780e+01  2.040165000e+01  1.735950000e+00  9.074780000e-02 -1.064350000e+00  2.038283221e+00  1.762410000e-01
-4.708332000e+01  1.560750200e+01  2.103794900e+01  1.038680000e+00  2.725020000e-01 -7.360510000e-01  1.301877320e+00  1.897530000e-01
-4.836086700e+01  1.263805600e+01  2.155877500e+01  5.061330000e-01  3.180560000e-01 -4.692250000e-01  7.599357430e-01  2.141930000e-01
-4.930243900e+01  9.541332000e+00  2.196024500e+01  1.455610000e-01  2.726320000e-01 -2.647550000e-01  4.069538330e-01  2.234320000e-01
-4.990903950e+01  6.367431000e+00  2.224923300e+01 -4.703950000e-02  1.748310000e-01 -1.207670000e-01  2.176310212e-01  2.230160000e-01
-5.017667850e+01  3.162220200e+00  2.244067620e+01 -7.567850000e-02  6.202020000e-02 -3.732380000e-02  1.047225220e-01  2.135550000e-01
-3.055888000e+01  2.834794000e+01  1.738485000e+01  7.192120000e+00 -5.310060000e+00 -4.226150000e+00  9.888562642e+00  1.230560000e+00
-3.312479000e+01  2.744914000e+01  1.832363000e+01  6.373210000e+00 -3.873860000e+00 -3.670370000e+00  8.312413184e+00  9.635550000e-01
-3.562240000e+01  2.620239000e+01  1.934574000e+01  5.460600000e+00 -2.642610000e+00 -3.128260000e+00  6.825507351e+00  7.416430000e-01
-3.802732000e+01  2.463055000e+01  2.039520000e+01  4.489680000e+00 -1.619450000e+00 -2.586800000e+00  5.428754834e+00  5.345310000e-01
-4.029200000e+01  2.273271600e+01  2.141253000e+01  3.515000000e+00 -8.232840000e-01 -2.062470000e+00  4.157740257e+00  3.582960000e-01
-4.236044000e+01  2.052457800e+01  2.235750000e+01  2.591560000e+00 -2.534220000e-01 -1.571500000e+00  3.041384256e+00  2.333040000e-01
-4.418449000e+01  1.803575000e+01  2.319900000e+01  1.766510000e+00  1.067500000e-01 -1.133000000e+00  2.101342938e+00  1.821370000e-01
-4.572567000e+01  1.531048700e+01  2.391440100e+01  1.077330000e+00  2.894870000e-01 -7.605990000e-01  1.350167949e+00  1.914350000e-01
-4.695633600e+01  1.240161100e+01  2.449412200e+01  5.466640000e-01  3.356110000e-01 -4.628780000e-01  7.910324362e-01  2.150870000e-01
-4.786800400e+01  9.366860000e+00  2.493381000e+01  1.819960000e-01  2.892600000e-01 -2.411900000e-01  4.182899804e-01  2.248140000e-01
-4.845848720e+01  6.252636000e+00  2.524206730e+01 -1.948720000e-02  1.880360000e-01 -9.393270000e-02  2.110939137e-01  2.256710000e-01
-4.871903290e+01  3.104477900e+00  2.543464260e+01 -5.903290000e-02  6.857790000e-02 -2.135740000e-02  9.297284650e-02  2.118260000e-01
-2.993166000e+01  2.783543000e+01  1.952382000e+01  6.942340000e+00 -5.086570000e+00 -4.589180000e+00  9.753453343e+00  1.225700000e+00
-3.236718000e+01  2.693303000e+01  2.055350000e+01  6.153820000e+00 -3.705970000e+00 -3.988500000e+00  8.216559285e+00  9.640260000e-01
-3.473196000e+01  2.569730000e+01  2.169146000e+01  5.274040000e+00 -2.513700000e+00 -3.381540000e+00  6.750481345e+00  7.409180000e-01
-3.700716000e+01  2.413983000e+01  2.284976000e+01  4.336840000e+00 -1.526170000e+00 -2.781240000e+00  5.373329693e+00  5.350120000e-01
-3.914017000e+01  2.226672800e+01  2.397259000e+01  3.402830000e+00 -7.592720000e-01 -2.198410000e+00  4.121741441e+00  3.599910000e-01
-4.108654000e+01  2.009294100e+01  2.501242000e+01  2.519460000e+00 -2.120590000e-01 -1.656580000e+00  3.022731382e+00  2.362350000e-01
-4.280255000e+01  1.764977100e+01  2.593443000e+01  1.731450000e+00  1.327710000e-01 -1.174570000e+00  2.096464148e+00  1.851500000e-01
-4.425252000e+01  1.498135400e+01  2.671632100e+01  1.071480000e+00  3.063540000e-01 -7.686790000e-01  1.353805588e+00  1.935690000e-01
-4.541362100e+01  1.213573400e+01  2.734499600e+01  5.603790000e-01  3.477340000e-01 -4.480040000e-01  7.972773309e-01  2.165560000e-01
-4.627719700e+01  9.166858000e+00  2.781729200e+01  2.048030000e-01  2.988580000e-01 -2.147080000e-01  4.211411856e-01  2.262240000e-01
-4.683988487e+01  6.120209000e+00  2.814071460e+01  3.115130000e-03  1.954090000e-01 -6.728540000e-02  2.066922988e-01  2.280170000e-01
-4.708792870e+01  3.038469000e+00  2.833256524e+01 -4.392870000e-02  7.236900000e-02 -6.434760000e-03  8.490234968e-02  2.109740000e-01
-2.942516000e+01  2.747713000e+01  2.171355000e+01  6.479840000e+00 -4.664870000e+00 -4.796450000e+00  9.314250971e+00  1.165910000e+00
-3.165474000e+01  2.651892000e+01  2.281420000e+01  5.775260000e+00 -3.409080000e+00 -4.172800000e+00  7.898589390e+00  9.311030000e-01
-3.385344000e+01  2.526075000e+01  2.403223000e+01  4.947560000e+00 -2.298250000e+00 -3.535770000e+00  6.500920897e+00  7.139650000e-01
-3.596014000e+01  2.369318000e+01  2.528357000e+01  4.072860000e+00 -1.376820000e+00 -2.892430000e+00  5.181695977e+00  5.149640000e-01
-3.793509000e+01  2.182517800e+01  2.649089000e+01  3.199910000e+00 -6.618220000e-01 -2.271110000e+00  3.979368417e+00  3.466230000e-01
-3.973306000e+01  1.967312400e+01  2.760730000e+01  2.377940000e+00 -1.538760000e-01 -1.693700000e+00  2.923507509e+00  2.301570000e-01
-4.131713000e+01  1.726686900e+01  2.859481000e+01  1.644870000e+00  1.638690000e-01 -1.183190000e+00  2.032827819e+00  1.850010000e-01
-4.265662000e+01  1.464787900e+01  2.942920600e+01  1.030380000e+00  3.208790000e-01 -7.557940000e-01  1.317524515e+00  1.956160000e-01
-4.373196300e+01  1.186256400e+01  3.009713800e+01  5.520370000e-01  3.535640000e-01 -4.218620000e-01  7.795639156e-01  2.181910000e-01
-4.453509700e+01  8.961002000e+00  3.059536800e+01  2.159030000e-01  3.013020000e-01 -1.836320000e-01  4.136637669e-01  2.272950000e-01
-4.506013770e+01  5.984005000e+00  3.093100580e+01  2.086230000e-02  1.969050000e-01 -3.999420000e-02  2.020058183e-01  2.294590000e-01
-4.528986660e+01  2.971499600e+00  3.112404651e+01 -3.086660000e-02  7.339960000e-02  8.046510000e-03  8.003121016e-02  2.106990000e-01
-2.887991000e+01  2.723508000e+01  2.387361000e+01  5.953090000e+00 -4.171920000e+00 -4.853390000e+00  8.740685987e+00  1.071900000e+00
-3.088795000e+01  2.623265000e+01  2.501022000e+01  5.311050000e+00 -3.063350000e+00 -4.253780000e+00  7.462305918e+00  8.698100000e-01
-3.288048000e+01  2.493669000e+01  2.630550000e+01  4.559520000e+00 -2.060310000e+00 -3.600500000e+00  6.164227460e+00  6.681490000e-01
-3.480487000e+01  2.334964000e+01  2.763408000e+01  3.756130000e+00 -1.215360000e+00 -2.936920000e+00  4.920478797e+00  4.804650000e-01
-3.660929000e+01  2.147399400e+01  2.891934000e+01  2.956710000e+00 -5.600060000e-01 -2.290660000e+00  3.781912741e+00  3.233340000e-01
-3.825186000e+01  1.933079500e+01  3.010273000e+01  2.204140000e+00 -9.620500000e-02 -1.692270000e+00  2.780515473e+00  2.187330000e-01
-3.969790000e+01  1.695001000e+01  3.114755000e+01  1.534100000e+00  1.910100000e-01 -1.164450000e+00  1.935430555e+00  1.833770000e-01
-4.092143600e+01  1.436927100e+01  3.202942500e+01  9.715640000e-01  3.292710000e-01 -7.255750000e-01  1.256509084e+00  1.977440000e-01
-4.190604800e+01  1.163240300e+01  3.273209700e+01  5.319520000e-01  3.524030000e-01 -3.859030000e-01  7.457090117e-01  2.197390000e-01
-4.264298900e+01  8.786208000e+00  3.325371000e+01  2.200110000e-01  2.970080000e-01 -1.482900000e-01  3.982568471e-01  2.277080000e-01
-4.312486380e+01  5.867629000e+00  3.360338760e+01  3.513620000e-02  1.931290000e-01 -1.161240000e-02  1.966423429e-01  2.295230000e-01
-4.333283590e+01  2.914248800e+00  3.379980080e+01 -1.983590000e-02  7.184880000e-02  2.280080000e-02  7.794606771e-02  2.107620000e-01
-2.821515000e+01  2.714681000e+01  2.580450000e+01  5.436850000e+00 -3.718190000e+00 -4.853500000e+00  8.181731910e+00  9.708330000e-01
-2.993511000e+01  2.611678000e+01  2.702141000e+01  4.863890000e+00 -2.774220000e+00 -4.272590000e+00  7.043347773e+00  7.968470000e-01
-3.170970000e+01  2.479896000e+01  2.840438000e+01  4.182300000e+00 -1.864040000e+00 -3.624620000e+00  5.839875731e+00  6.126030000e-01
-3.345340000e+01  2.318415000e+01  2.982684000e+01  3.449600000e+00 -1.086850000e+00 -2.946160000e+00  4.664851748e+00  4.386080000e-01
-3.509612000e+01  2.129202600e+01  3.119571000e+01  2.719880000e+00 -4.819740000e-01 -2.284290000e+00  3.584414451e+00  2.947870000e-01
-3.659221000e+01  1.914407950e+01  3.245268000e+01  2.034790000e+00 -5.592050000e-02 -1.670320000e+00  2.633147612e+00  2.041560000e-01
-3.790992000e+01  1.676950600e+01  3.355879000e+01  1.425080000e+00  2.055060000e-01 -1.131210000e+00  1.831043906e+00  1.798830000e-01
-3.902521600e+01  1.420600200e+01  3.449081200e+01  9.127840000e-01  3.280020000e-01 -6.851880000e-01  1.187536331e+00  1.982970000e-01
-3.992431700e+01  1.149365400e+01  3.523229800e+01  5.106830000e-01  3.436540000e-01 -3.437020000e-01  7.050008958e-01  2.196830000e-01
-4.059832700e+01  8.677117000e+00  3.578249000e+01  2.226730000e-01  2.865170000e-01 -1.095100000e-01  3.790352178e-01  2.265190000e-01
-4.103700560e+01  5.791402000e+00  3.615024400e+01  4.799440000e-02  1.849020000e-01  1.824400000e-02  1.918985554e-01  2.278280000e-01
-4.122119920e+01  2.874814500e+00  3.635355510e+01 -1.019920000e-02  6.821450000e-02  3.855510000e-02  7.901732359e-02  2.111730000e-01
 1.913760000e-01  3.121154790e+00  5.167508500e+01  1.913760000e-01  1.454790000e-03  1.040850000e-01  2.178544859e-01  2.706960000e-01
 3.801540000e-01  6.214377400e+00  5.153140700e+01  3.801540000e-01 -1.372260000e-02  2.394070000e-01  4.494675574e-01  2.647540000e-01
 5.638290000e-01  9.304646420e+00  5.118454500e+01  5.638290000e-01 -8.653580000e-03  3.635450000e-01  6.709269653e-01  2.588210000e-01
 7.414650000e-01  1.237586120e+01  5.062678700e+01  7.414650000e-01  1.186120000e-02  4.617870000e-01  8.735893015e-01  2.601130000e-01
 9.127730000e-01  1.540992060e+01  4.984448000e+01  9.127730000e-01  3.892060000e-02  5.174800000e-01  1.049978530e+00  2.641760000e-01
 1.077070000e+00  1.838305120e+01  4.882813400e+01  1.077070000e+00  6.205120000e-02  5.191340000e-01  1.197259473e+00  2.677530000e-01
 1.233710000e+00  2.127433650e+01  4.757521100e+01  1.233710000e+00  6.933650000e-02  4.602110000e-01  1.318575777e+00  2.682920000e-01
 1.382100000e+00  2.405895190e+01  4.608759700e+01  1.382100000e+00  4.895190000e-02  3.395970000e-01  1.424051551e+00  2.641590000e-01
 1.521800000e+00  2.671953904e+01  4.437670000e+01  1.521800000e+00 -9.460960000e-03  1.617000000e-01  1.530395909e+00  2.548150000e-01
 1.652530000e+00  2.923697300e+01  4.245719630e+01  1.652530000e+00 -1.130270000e-01 -6.380370000e-02  1.657619201e+00  2.408700000e-01
 1.774210000e+00  3.160077400e+01  4.035058600e+01  1.774210000e+00 -2.642260000e-01 -3.224140000e-01  1.822522233e+00  2.241660000e-01
 1.887370000e+00  3.380053100e+01  3.807583000e+01  1.887370000e+00 -4.594690000e-01 -5.961700000e-01  2.031919277e+00  2.076090000e-01
 1.989950000e+00  3.584612900e+01  3.566692800e+01  1.989950000e+00 -6.878710000e-01 -8.670720000e-01  2.277033458e+00  1.946310000e-01
 2.081580000e+00  3.773886600e+01  3.314392000e+01  2.081580000e+00 -9.331340000e-01 -1.116080000e+00  2.539556836e+00  1.882480000e-01
 2.160070000e+00  3.949875000e+01  3.053632000e+01  2.160070000e+00 -1.174250000e+00 -1.328680000e+00  2.794665635e+00  1.889290000e-01
 2.224870000e+00  4.113218000e+01  2.785600000e+01  2.224870000e+00 -1.388820000e+00 -1.494000000e+00  3.018427324e+00  1.936520000e-01
 2.273860000e+00  4.265925000e+01  2.512110000e+01  2.273860000e+00 -1.555750000e+00 -1.607900000e+00  3.190006234e+00  1.981520000e-01
 2.305870000e+00  4.408960000e+01  2.233822000e+01  2.305870000e+00 -1.658400000e+00 -1.671780000e+00  3.295781453e+00  1.993190000e-01
 2.321070000e+00  4.542840000e+01  1.951299000e+01  2.321070000e+00 -1.686600000e+00 -1.692010000e+00  3.330898279e+00  1.958090000e-01
 2.320630000e+00  4.667144000e+01  1.664183000e+01  2.320630000e+00 -1.637560000e+00 -1.679170000e+00  3.299475449e+00  1.879440000e-01
 2.306240000e+00  4.781113000e+01  1.372509000e+01  2.306240000e+00 -1.515870000e+00 -1.645910000e+00  3.213350980e+00  1.775350000e-01
 2.279530000e+00  4.883242000e+01  1.075860000e+01  2.279530000e+00 -1.332580000e+00 -1.605400000e+00  3.090199935e+00  1.675200000e-01
 2.242590000e+00  4.971767000e+01  7.744310000e+00  2.242590000e+00 -1.103330000e+00 -1.568990000e+00  2.950978925e+00  1.613900000e-01
 2.197020000e+00  5.044583200e+01  4.682510000e+00  2.197020000e+00 -8.461680000e-01 -1.545590000e+00  2.816335494e+00  1.618880000e-01
 2.145280000e+00  5.099165700e+01  1.579670000e+00  2.145280000e+00 -5.793430000e-01 -1.540030000e+00  2.703619239e+00  1.692730000e-01
 1.952640000e-01  2.910374710e+00  4.833794170e+01  1.952640000e-01 -8.025290000e-03  9.294170000e-02  2.164037767e-01  2.887360000e-01
 3.842170000e-01  5.827193220e+00  4.820558800e+01  3.842170000e-01  1.093220000e-03  2.235880000e-01  4.445396405e-01  3.008330000e-01
 5.723740000e-01  8.715907070e+00  4.789687300e+01  5.723740000e-01  3.507070000e-03  3.548730000e-01  6.734679959e-01  3.172040000e-01
 7.624470000e-01  1.157056075e+01  4.739272800e+01  7.624470000e-01  3.560750000e-03  4.637280000e-01  8.924022438e-01  3.395670000e-01
 9.553010000e-01  1.437641381e+01  4.668166200e+01  9.553010000e-01 -2.586190000e-03  5.366620000e-01  1.095724779e+00  3.637500000e-01
 1.151100000e+00  1.711837580e+01  4.575483900e+01  1.151100000e+00 -2.062420000e-02  5.628390000e-01  1.281500803e+00  3.870650000e-01
 1.349510000e+00  1.977971580e+01  4.461076700e+01  1.349510000e+00 -5.728420000e-02  5.357670000e-01  1.453101854e+00  4.074730000e-01
 1.549860000e+00  2.234149700e+01  4.325008400e+01  1.549860000e+00 -1.195030000e-01  4.530840000e-01  1.619145484e+00  4.237140000e-01
 1.751060000e+00  2.479096600e+01  4.167877200e+01  1.751060000e+00 -2.130340000e-01  3.167720000e-01  1.792188357e+00  4.351910000e-01
 1.951580000e+00  2.711583500e+01  3.991100300e+01  1.951580000e+00 -3.411650000e-01  1.330030000e-01  1.985635377e+00  4.420250000e-01
 2.149270000e+00  2.930551100e+01  3.795971170e+01  2.149270000e+00 -5.034890000e-01 -8.828830000e-02  2.209221023e+00  4.450430000e-01
 2.341570000e+00  3.135510700e+01  3.584398800e+01  2.341570000e+00 -6.948930000e-01 -3.340120000e-01  2.465236371e+00  4.455940000e-01
 2.523480000e+00  3.327252900e+01  3.358689500e+01  2.523480000e+00 -9.044710000e-01 -5.901050000e-01  2.744857558e+00  4.445470000e-01
 2.689880000e+00  3.506053000e+01  3.120831800e+01  2.689880000e+00 -1.117470000e+00 -8.416820000e-01  3.031933740e+00  4.421250000e-01
 2.834510000e+00  3.673213000e+01  2.873341000e+01  2.834510000e+00 -1.315870000e+00 -1.075590000e+00  3.304974228e+00  4.387800000e-01
 2.951560000e+00  3.829635000e+01  2.617573000e+01  2.951560000e+00 -1.481650000e+00 -1.281270000e+00  3.542406805e+00  4.348190000e-01
 3.035510000e+00  3.976322000e+01  2.355185000e+01  3.035510000e+00 -1.598780000e+00 -1.452150000e+00  3.725474208e+00  4.301020000e-01
 3.082920000e+00  4.114135000e+01  2.087574000e+01  3.082920000e+00 -1.655650000e+00 -1.585260000e+00  3.841695188e+00  4.245620000e-01
 3.093210000e+00  4.242876000e+01  1.815572000e+01  3.093210000e+00 -1.646240000e+00 -1.681280000e+00  3.886483845e+00  4.183240000e-01
 3.068330000e+00  4.362149000e+01  1.539477000e+01  3.068330000e+00 -1.570510000e+00 -1.744230000e+00  3.863093183e+00  4.115910000e-01
 3.012340000e+00  4.471083000e+01  1.259827000e+01  3.012340000e+00 -1.434170000e+00 -1.780730000e+00  3.781803167e+00  4.046370000e-01
 2.930430000e+00  4.568133000e+01  9.768280000e+00  2.930430000e+00 -1.247670000e+00 -1.798720000e+00  3.657799072e+00  3.977540000e-01
 2.828630000e+00  4.651719000e+01  6.906110000e+00  2.828630000e+00 -1.024810000e+00 -1.806290000e+00  3.509140461e+00  3.911860000e-01
 2.712290000e+00  4.720097400e+01  4.015650000e+00  2.712290000e+00 -7.810260000e-01 -1.810450000e+00  3.353244378e+00  3.848080000e-01
 2.587470000e+00  4.771311600e+01  1.102300000e+00  2.587470000e+00 -5.318840000e-01 -1.816100000e+00  3.205638907e+00  3.781800000e-01
-3.653400000e+01 -8.111180000e-37  3.653400000e+01 -1.075430000e-36 -8.111180000e-37  1.250720000e-36  1.838141075e-36  2.295060000e-01
-3.426000000e+01 -6.054810000e-37  3.867200000e+01 -5.204840000e-37 -6.054810000e-37  1.625710000e-36  1.811199558e-36  2.398380000e-01
-3.186500000e+01 -5.707950000e-37  4.067300000e+01 -3.055950000e-37 -5.707950000e-37  1.658720000e-36  1.780603065e-36  2.510430000e-01
-2.935000000e+01 -5.361950000e-37  4.252100000e+01 -9.842590000e-38 -5.361950000e-37  1.651500000e-36  1.739150651e-36  2.622810000e-01
-2.672900000e+01 -5.007720000e-37  4.421500000e+01  9.634550000e-38 -5.007720000e-37  1.606100000e-36  1.685114910e-36  2.728190000e-01
-2.401000000e+01 -4.647020000e-37  4.574800000e+01  2.734980000e-37 -4.647020000e-37  1.524640000e-36  1.617181571e-36  2.818750000e-01
-2.120500000e+01 -4.286710000e-37  4.711500000e+01  4.288570000e-37 -4.286710000e-37  1.413340000e-36  1.537922985e-36  2.888530000e-01
-1.832100000e+01 -3.943720000e-37  4.830900000e+01  5.588570000e-37 -3.943720000e-37  1.278870000e-36  1.450296141e-36  2.933590000e-01
-1.537100000e+01 -3.621040000e-37  4.932700000e+01  6.628890000e-37 -3.621040000e-37  1.129170000e-36  1.358516110e-36  2.952000000e-01
-1.236400000e+01 -3.350190000e-37  5.016500000e+01  7.390530000e-37 -3.350190000e-37  9.687650000e-37  1.263701979e-36  2.943410000e-01
-9.313300000e+00 -3.055490000e-37  5.082100000e+01  7.962770000e-37 -3.055490000e-37  8.056730000e-37  1.173254548e-36  2.910100000e-01
-6.228100000e+00 -2.731600000e-37  5.129200000e+01  8.244310000e-37 -2.731600000e-37  6.403190000e-37  1.079032567e-36  2.856270000e-01
-3.119700000e+00 -2.222870000e-37  5.157100000e+01  8.150600000e-37 -2.222870000e-37  4.827100000e-37  9.730073268e-37  2.789100000e-01
-5.157100000e+01 -1.062910000e-36  3.119700000e+00 -1.196570000e-36 -1.062910000e-36 -1.055210000e-36  1.917035622e-36  2.954530000e-01
-5.129200000e+01 -1.043560000e-36  6.228100000e+00 -1.358290000e-36 -1.043560000e-36 -8.627120000e-37  1.917874134e-36  2.906740000e-01
-5.082100000e+01 -1.017660000e-36  9.313300000e+00 -1.499570000e-36 -1.017660000e-36 -6.342550000e-37  1.920057672e-36  2.831120000e-01
-5.016500000e+01 -9.838000000e-37  1.236400000e+01 -1.603720000e-36 -9.838000000e-37 -3.839650000e-37  1.920210770e-36  2.733380000e-01
-4.932700000e+01 -9.426630000e-37  1.537100000e+01 -1.664110000e-36 -9.426630000e-37 -1.165710000e-37  1.916106579e-36  2.619680000e-01
-4.830900000e+01 -8.973480000e-37  1.832100000e+01 -1.677850000e-36 -8.973480000e-37  1.558080000e-37  1.909107171e-36  2.498570000e-01
-4.711500000e+01 -8.507690000e-37  2.120500000e+01 -1.645480000e-36 -8.507690000e-37  4.243660000e-37  1.900394386e-36  2.380470000e-01
-4.574800000e+01 -8.057530000e-37  2.401000000e+01 -1.569690000e-36 -8.057530000e-37  6.796800000e-37  1.890801284e-36  2.277350000e-01
-4.421500000e+01 -7.636410000e-37  2.672900000e+01 -1.455350000e-36 -7.636410000e-37  9.146710000e-37  1.880907823e-36  2.201380000e-01
-4.252100000e+01 -7.251770000e-37  2.935000000e+01 -1.308280000e-36 -7.251770000e-37  1.124010000e-36  1.871062992e-36  2.162610000e-01
-4.067300000e+01 -6.909340000e-37  3.186500000e+01 -1.136010000e-36 -6.909340000e-37  1.304310000e-36  1.862560895e-36  2.166570000e-01
-3.867200000e+01 -6.627390000e-37  3.426000000e+01 -9.434850000e-37 -6.627390000e-37  1.452170000e-36  1.854234245e-36  2.213250000e-01
-2.918400000e+00 -5.581500000e-37  4.824500000e+01  1.209140000e-36 -5.581500000e-37  3.755780000e-37  1.383694257e-36  2.955500000e-01
-5.826100000e+00 -7.267280000e-37  4.798200000e+01  1.212700000e-36 -7.267280000e-37  5.685820000e-37  1.523830820e-36  3.072260000e-01
-8.712400000e+00 -9.080480000e-37  4.754200000e+01  1.218760000e-36 -9.080480000e-37  7.794510000e-37  1.708060587e-36  3.178220000e-01
-1.156700000e+01 -1.118690000e-36  4.692900000e+01  1.193670000e-36 -1.118690000e-36  1.005190000e-36  1.920083936e-36  3.268240000e-01
-1.437900000e+01 -1.357280000e-36  4.614500000e+01  1.130800000e-36 -1.357280000e-36  1.232420000e-36  2.154014089e-36  3.338260000e-01
-1.713900000e+01 -1.614980000e-36  4.519200000e+01  1.027000000e-36 -1.614980000e-36  1.451660000e-36  2.402125341e-36  3.383840000e-01
-1.983700000e+01 -1.884350000e-36  4.407500000e+01  8.804360000e-37 -1.884350000e-36  1.651850000e-36  2.656040454e-36  3.401490000e-01
-2.246100000e+01 -2.156860000e-36  4.279700000e+01  6.919810000e-37 -2.156860000e-36  1.821460000e-36  2.906647432e-36  3.389170000e-01
-2.500400000e+01 -2.423400000e-36  4.136200000e+01  4.653560000e-37 -2.423400000e-36  1.948640000e-36  3.144299861e-36  3.346940000e-01
-2.745700000e+01 -2.674060000e-36  3.977800000e+01  2.081010000e-37 -2.674060000e-36  2.023040000e-36  3.359552612e-36  3.277690000e-01
-2.980900000e+01 -2.898780000e-36  3.804800000e+01 -6.973250000e-38 -2.898780000e-36  2.037230000e-36  3.543740140e-36  3.187820000e-01
-3.205000000e+01 -3.087540000e-36  3.617800000e+01 -3.575670000e-37 -3.087540000e-36  1.995700000e-36  3.693721146e-36  3.086760000e-01
-3.417700000e+01 -3.224640000e-36  3.417700000e+01 -6.508140000e-37 -3.224640000e-36  1.898610000e-36  3.798234053e-36  2.987540000e-01
-3.617800000e+01 -2.367290000e-36  3.205000000e+01 -0.000000000e+00 -2.367290000e-36  1.617500000e-36  2.867118448e-36  2.908340000e-01
-3.804800000e+01 -2.335290000e-36  2.980900000e+01 -2.068380000e-37 -2.335290000e-36  1.482150000e-36  2.773649214e-36  2.866760000e-01
-3.977800000e+01 -2.247010000e-36  2.745700000e+01 -3.953380000e-37 -2.247010000e-36  1.308030000e-36  2.629883753e-36  2.871360000e-01
-4.136200000e+01 -2.107550000e-36  2.500400000e+01 -5.635860000e-37 -2.107550000e-36  1.095650000e-36  2.441279399e-36  2.920400000e-01
-4.279700000e+01 -1.924370000e-36  2.246100000e+01 -7.044810000e-37 -1.924370000e-36  8.530660000e-37  2.219733087e-36  3.003970000e-01
-4.407500000e+01 -1.707650000e-36  1.983700000e+01 -8.125150000e-37 -1.707650000e-36  5.894130000e-37  1.980822262e-36  3.106820000e-01
-4.519200000e+01 -1.468130000e-36  1.713900000e+01 -8.837460000e-37 -1.468130000e-36  3.149500000e-37  1.742299111e-36  3.212490000e-01
-4.614500000e+01 -1.216740000e-36  1.437900000e+01 -9.166990000e-37 -1.216740000e-36  4.069370000e-38  1.523958419e-36  3.306620000e-01
-4.692900000e+01 -9.627870000e-37  1.156700000e+01 -9.128590000e-37 -9.627870000e-37 -2.240120000e-37  1.345530281e-36  3.378820000e-01
-4.754200000e+01 -7.153600000e-37  8.712400000e+00 -8.740980000e-37 -7.153600000e-37 -4.683960000e-37  1.222776372e-36  3.422680000e-01
-4.798200000e+01 -4.800450000e-37  5.826100000e+00 -8.028620000e-37 -4.800450000e-37 -6.886050000e-37  1.161553890e-36  3.435680000e-01
-4.824500000e+01 -2.684510000e-37  2.918400000e+00 -6.953670000e-37 -2.684510000e-37 -8.663720000e-37  1.142891791e-36  3.416350000e-01
-1.001230000e+00  5.087708900e+01 -1.618040000e+00  2.118470000e+00 -6.939110000e-01 -1.618040000e+00  2.754538266e+00  1.649600000e-01
-4.038520000e+00  5.016448000e+01 -1.680720000e+00  2.189580000e+00 -1.127520000e+00 -1.680720000e+00  2.981674302e+00  1.604970000e-01
-7.005830000e+00  4.921531000e+01 -1.744930000e+00  2.307470000e+00 -1.605690000e+00 -1.744930000e+00  3.308691415e+00  1.793760000e-01
-9.888880000e+00  4.805873000e+01 -1.810380000e+00  2.475120000e+00 -2.106270000e+00 -1.810380000e+00  3.720224196e+00  2.218540000e-01
-1.268363000e+01  4.672673000e+01 -1.876750000e+00  2.687370000e+00 -2.600270000e+00 -1.876750000e+00  4.183963689e+00  2.783990000e-01
-1.538983000e+01  4.525579000e+01 -1.942300000e+00  2.931170000e+00 -3.053210000e+00 -1.942300000e+00  4.656863554e+00  3.394220000e-01
-1.802183000e+01  4.368608000e+01 -2.003290000e+00  3.183170000e+00 -3.428920000e+00 -2.003290000e+00  5.089522025e+00  3.974540000e-01
-2.059621000e+01  4.205543000e+01 -2.053060000e+00  3.413790000e+00 -3.692570000e+00 -2.053060000e+00  5.431766815e+00  4.463090000e-01
-2.314001000e+01  4.039928000e+01 -2.082990000e+00  3.588990000e+00 -3.815720000e+00 -2.082990000e+00  5.637323450e+00  4.811700000e-01
-2.567178000e+01  3.873996000e+01 -2.084440000e+00  3.678220000e+00 -3.781040000e+00 -2.084440000e+00  5.671900560e+00  4.985040000e-01
-2.820693000e+01  3.708626000e+01 -2.052720000e+00  3.658070000e+00 -3.586740000e+00 -2.052720000e+00  5.519043337e+00  4.957910000e-01
-3.074370000e+01  3.542251000e+01 -1.988930000e+00  3.516300000e+00 -3.249490000e+00 -1.988930000e+00  5.184534067e+00  4.718650000e-01
-3.327944000e+01  3.373167000e+01 -1.896280000e+00  3.254560000e+00 -2.802330000e+00 -1.896280000e+00  4.694794145e+00  4.279430000e-01
-3.578585000e+01  3.196754000e+01 -1.785240000e+00  2.886150000e+00 -2.292460000e+00 -1.785240000e+00  4.095401877e+00  3.693310000e-01
-3.823677000e+01  3.009529000e+01 -1.663600000e+00  2.436230000e+00 -1.769710000e+00 -1.663600000e+00  3.440153348e+00  3.057900000e-01
-4.058532000e+01  2.806840000e+01 -1.539430000e+00  1.935680000e+00 -1.281600000e+00 -1.539430000e+00  2.785534122e+00  2.520950000e-01
-4.279271000e+01  2.586681300e+01 -1.413850000e+00  1.422290000e+00 -8.621870000e-01 -1.413850000e+00  2.182944592e+00  2.238840000e-01
-4.481469100e+01  2.347843600e+01 -1.286560000e+00  9.333090000e-01 -5.315640000e-01 -1.286560000e+00  1.675966172e+00  2.236410000e-01
-4.661293200e+01  2.091050000e+01 -1.155630000e+00  5.020680000e-01 -2.945000000e-01 -1.155630000e+00  1.293940966e+00  2.388130000e-01
-4.815481600e+01  1.817800000e+01 -1.018490000e+00  1.541840000e-01 -1.430000000e-01 -1.018490000e+00  1.039972878e+00  2.561650000e-01
-4.942147680e+01  1.531091560e+01 -8.729690000e-01 -9.447680000e-02 -6.008440000e-02 -8.729690000e-01  8.801198077e-01  2.689220000e-01
-5.040424100e+01  1.233995860e+01 -7.176360000e-01 -2.392410000e-01 -2.404140000e-02 -7.176360000e-01  7.568458717e-01  2.754080000e-01
-5.110644100e+01  9.300457800e+00 -5.519070000e-01 -2.854410000e-01 -1.284220000e-02 -5.519070000e-01  6.214843709e-01  2.782580000e-01
-5.154105500e+01  6.221396640e+00 -3.758930000e-01 -2.490550000e-01 -6.703360000e-03 -3.758930000e-01  4.509643839e-01  2.818410000e-01
-5.171527000e+01  3.123434390e+00 -1.911660000e-01 -1.442700000e-01  3.734390000e-03 -1.911660000e-01  2.395249843e-01  2.910760000e-01
-3.793500000e-01  4.760806400e+01 -1.965500000e+00  2.539050000e+00 -6.369360000e-01 -1.965500000e+00  3.273477145e+00  3.805730000e-01
-3.178180000e+00  4.694442000e+01 -2.113290000e+00  2.647920000e+00 -1.037580000e+00 -2.113290000e+00  3.543169091e+00  3.907970000e-01
-5.926940000e+00  4.606020000e+01 -2.271020000e+00  2.785460000e+00 -1.481800000e+00 -2.271020000e+00  3.887422088e+00  4.033800000e-01
-8.617460000e+00  4.497762000e+01 -2.436320000e+00  2.949540000e+00 -1.951380000e+00 -2.436320000e+00  4.294569275e+00  4.197190000e-01
-1.124756000e+01  4.372239000e+01 -2.606040000e+00  3.131440000e+00 -2.422610000e+00 -2.606040000e+00  4.739873434e+00  4.396290000e-01
-1.382408000e+01  4.232477000e+01 -2.773270000e+00  3.314920000e+00 -2.867230000e+00 -2.773270000e+00  5.186591267e+00  4.621000000e-01
-1.635929000e+01  4.082057000e+01 -2.927640000e+00  3.477710000e+00 -3.254430000e+00 -2.927640000e+00  5.590783258e+00  4.858180000e-01
-1.886785000e+01  3.924321000e+01 -3.054500000e+00  3.593150000e+00 -3.553790000e+00 -3.054500000e+00  5.905092763e+00  5.091900000e-01
-2.136729000e+01  3.762324000e+01 -3.136890000e+00  3.636710000e+00 -3.738760000e+00 -3.136890000e+00  6.086383560e+00  5.302640000e-01
-2.386757000e+01  3.598849000e+01 -3.159290000e+00  3.589430000e+00 -3.789510000e+00 -3.159290000e+00  6.101270939e+00  5.469730000e-01
-2.636683000e+01  3.435097000e+01 -3.112520000e+00  3.442170000e+00 -3.697030000e+00 -3.112520000e+00  5.933325027e+00  5.576650000e-01
-2.885379000e+01  3.271111000e+01 -2.998260000e+00  3.196210000e+00 -3.466890000e+00 -2.998260000e+00  5.587901902e+00  5.616450000e-01
-3.131457000e+01  3.105654000e+01 -2.826940000e+00  2.862430000e+00 -3.120460000e+00 -2.826940000e+00  5.091401171e+00  5.593560000e-01
-4.837009900e+01  2.886986800e+00 -2.182170000e-01 -1.250990000e-01 -3.141320000e-02 -2.182170000e-01  2.534861101e-01  3.525190000e-01
-4.821680000e+01  5.749090100e+00 -4.214360000e-01 -2.348000000e-01 -7.700990000e-02 -4.214360000e-01  4.885385008e-01  3.833320000e-01
-4.784106300e+01  8.575451000e+00 -6.216750000e-01 -2.990630000e-01 -1.369490000e-01 -6.216750000e-01  7.033303009e-01  4.140790000e-01
-4.721809100e+01  1.135113200e+01 -8.228820000e-01 -2.890910000e-01 -2.158680000e-01 -8.228820000e-01  8.985028579e-01  4.428070000e-01
-4.633746700e+01  1.405223800e+01 -1.027530000e+00 -1.924670000e-01 -3.267620000e-01 -1.027530000e+00  1.095278436e+00  4.664560000e-01
-4.519425531e+01  1.665508100e+01 -1.236860000e+00 -2.255310000e-03 -4.839190000e-01 -1.236860000e+00  1.328158629e+00  4.837920000e-01
-4.379533200e+01  1.913593300e+01 -1.452260000e+00  2.796680000e-01 -7.010670000e-01 -1.452260000e+00  1.636694301e+00  4.957600000e-01
-4.215401200e+01  2.147304500e+01 -1.675010000e+00  6.429880000e-01 -9.879550000e-01 -1.675010000e+00  2.048205837e+00  5.053470000e-01
-4.029278000e+01  2.365762000e+01 -1.905560000e+00  1.069220000e+00 -1.346380000e+00 -1.905560000e+00  2.566540361e+00  5.156730000e-01
-3.824479000e+01  2.569005000e+01 -2.142760000e+00  1.533210000e+00 -1.766950000e+00 -2.142760000e+00  3.172422674e+00  5.278450000e-01
-3.604200000e+01  2.758158000e+01 -2.382280000e+00  2.006000000e+00 -2.227420000e+00 -2.382280000e+00  3.828928552e+00  5.406610000e-01
-3.372007000e+01  2.935705000e+01 -2.615600000e+00  2.457930000e+00 -2.692950000e+00 -2.615600000e+00  4.487177615e+00  5.518660000e-01
-3.108591000e+00  3.376231800e+00  4.489327800e+01  2.386090000e-01  2.903180000e-02  1.432780000e-01  2.798315307e-01  3.055120000e-01
-2.721842000e+00  6.172849900e+00  4.472335900e+01  4.335580000e-01  2.704990000e-02  2.563590000e-01  5.044047713e-01  3.291670000e-01
-2.341874000e+00  8.722901580e+00  4.440526400e+01  6.212260000e-01 -2.898420000e-03  3.592640000e-01  7.176355381e-01  3.721040000e-01
-2.011308000e+00  1.119704890e+01  4.391886200e+01  8.200920000e-01 -5.895110000e-02  4.418620000e-01  9.334174563e-01  4.210890000e-01
-1.700520000e+00  1.362815300e+01  4.324967600e+01  1.036580000e+00 -1.408470000e-01  4.956760000e-01  1.157596938e+00  4.713430000e-01
-1.388280000e+00  1.600831200e+01  4.238926200e+01  1.272820000e+00 -2.496880000e-01  5.132620000e-01  1.394938253e+00  5.192480000e-01
-1.063150000e+00  1.831988500e+01  4.133501700e+01  1.529650000e+00 -3.861150000e-01  4.890170000e-01  1.651681429e+00  5.620370000e-01
-7.200200000e-01  2.054990000e+01  4.008647900e+01  1.806380000e+00 -5.501000000e-01  4.204790000e-01  1.934533872e+00  5.976790000e-01
-3.577800000e-01  2.268712500e+01  3.864987200e+01  2.101020000e+00 -7.398750000e-01  3.078720000e-01  2.248662986e+00  6.246380000e-01
 2.122000000e-02  2.472293700e+01  3.703399300e+01  2.409820000e+00 -9.510630000e-01  1.539930000e-01  2.595277848e+00  6.419380000e-01
 4.098200000e-01  2.665565000e+01  3.524860780e+01  2.726720000e+00 -1.176350000e+00 -3.639220000e-02  2.969869639e+00  6.494530000e-01
 7.863000000e-01  2.848344000e+01  3.330427600e+01  3.044500000e+00 -1.407560000e+00 -2.577240000e-01  3.364019480e+00  6.487580000e-01
 1.118700000e+00  3.020871000e+01  3.121008500e+01  3.355700000e+00 -1.637290000e+00 -5.049150000e-01  3.767808407e+00  6.410960000e-01
-5.917043000e+00  3.171964600e+00  4.461045900e+01  2.287570000e-01  1.656460000e-02  1.434590000e-01  2.705265896e-01  3.220330000e-01
-5.669442000e+00  6.094026400e+00  4.443990300e+01  4.334580000e-01 -8.873600000e-03  2.749030000e-01  5.133578069e-01  3.567360000e-01
-5.255037000e+00  8.721496100e+00  4.412407000e+01  6.311630000e-01 -6.440390000e-02  3.840700000e-01  7.416362719e-01  4.111540000e-01
-4.838525000e+00  1.119748600e+01  4.363855800e+01  8.390750000e-01 -1.485140000e-01  4.635580000e-01  9.700460212e-01  4.680890000e-01
-4.436260000e+00  1.359057400e+01  4.296723400e+01  1.065540000e+00 -2.604260000e-01  5.072340000e-01  1.208504664e+00  5.235530000e-01
-4.034070000e+00  1.591609800e+01  4.210410600e+01  1.315330000e+00 -4.029020000e-01  5.101060000e-01  1.467184774e+00  5.741880000e-01
-3.618550000e+00  1.816782000e+01  4.104483400e+01  1.590150000e+00 -5.771800000e-01  4.678340000e-01  1.755158804e+00  6.173750000e-01
-3.181410000e+00  2.033281600e+01  3.979194800e+01  1.889890000e+00 -7.831840000e-01  3.789480000e-01  2.080543914e+00  6.510480000e-01
-2.719600000e+00  2.240279000e+01  3.835164600e+01  2.212400000e+00 -1.018210000e+00  2.446460000e-01  2.447716697e+00  6.735900000e-01
-2.234750000e+00  2.437196000e+01  3.673258130e+01  2.553050000e+00 -1.276040000e+00  6.858130000e-02  2.855003639e+00  6.841520000e-01
-1.737850000e+00  2.623849000e+01  3.494720800e+01  2.904750000e+00 -1.547510000e+00 -1.437920000e-01  3.294394618e+00  6.831670000e-01
-1.266620000e+00  2.800023000e+01  3.300333200e+01  3.260380000e+00 -1.824770000e+00 -3.876680000e-01  3.756347931e+00  6.734450000e-01
-8.713300000e-01  2.965402000e+01  3.090497900e+01  3.614270000e+00 -2.103980000e+00 -6.600210000e-01  4.233828905e+00  6.571390000e-01
-8.508294000e+00  2.965978280e+00  4.418576500e+01  2.175060000e-01  2.878280000e-03  1.397650000e-01  2.585563764e-01  3.385430000e-01
-8.367411000e+00  5.842389500e+00  4.401991300e+01  4.184890000e-01 -4.381050000e-02  2.799130000e-01  5.053748021e-01  3.831860000e-01
-8.002758000e+00  8.497211000e+00  4.370951200e+01  6.210420000e-01 -1.265890000e-01  3.935120000e-01  7.460359474e-01  4.473820000e-01
-7.571895000e+00  1.098812600e+01  4.322748100e+01  8.383050000e-01 -2.418740000e-01  4.704810000e-01  9.912672073e-01  5.117510000e-01
-7.120390000e+00  1.336826500e+01  4.255919200e+01  1.077710000e+00 -3.887350000e-01  5.051920000e-01  1.252115291e+00  5.715390000e-01
-6.650670000e+00  1.566005800e+01  4.169701400e+01  1.344330000e+00 -5.699420000e-01  4.940140000e-01  1.541462573e+00  6.238380000e-01
-6.155480000e+00  1.786263400e+01  4.063823200e+01  1.640820000e+00 -7.873660000e-01  4.342320000e-01  1.871040598e+00  6.660820000e-01
-5.628720000e+00  1.997123000e+01  3.938758400e+01  1.967380000e+00 -1.040770000e+00  3.255840000e-01  2.249397964e+00  6.962230000e-01
-5.067720000e+00  2.197749000e+01  3.795044600e+01  2.321880000e+00 -1.326510000e+00  1.704460000e-01  2.679516254e+00  7.126580000e-01
-4.475130000e+00  2.388071000e+01  3.633827930e+01  2.698770000e+00 -1.636290000e+00 -2.672070000e-02  3.156187332e+00  7.148530000e-01
-3.867520000e+00  2.568079000e+01  3.456322900e+01  3.090180000e+00 -1.959210000e+00 -2.597710000e-01  3.668132662e+00  7.040600000e-01
-3.299230000e+00  2.737301000e+01  3.262762800e+01  3.488970000e+00 -2.287990000e+00 -5.253720000e-01  4.205214101e+00  6.842850000e-01
-2.836350000e+00  2.894812000e+01  3.053039700e+01  3.892050000e+00 -2.622880000e+00 -8.226030000e-01  4.764895423e+00  6.593090000e-01
-1.104651100e+01  2.820263300e+00  4.361232200e+01  2.094890000e-01 -1.113670000e-02  1.353220000e-01  2.496431671e-01  3.555140000e-01
-1.094429800e+01  5.597710400e+00  4.345465600e+01  4.017020000e-01 -7.988960000e-02  2.796560000e-01  4.959378220e-01  4.102990000e-01
-1.062654400e+01  8.220618000e+00  4.315033700e+01  6.034560000e-01 -1.895820000e-01  3.933370000e-01  7.448586941e-01  4.820670000e-01
-1.020614100e+01  1.069523600e+01  4.267392000e+01  8.268590000e-01 -3.377640000e-01  4.659200000e-01  1.007403480e+00  5.527160000e-01
-9.730690000e+00  1.305156300e+01  4.201077100e+01  1.078310000e+00 -5.224370000e-01  4.907710000e-01  1.294816222e+00  6.159740000e-01
-9.213500000e+00  1.530456100e+01  4.115343700e+01  1.362500000e+00 -7.464390000e-01  4.654370000e-01  1.621791920e+00  6.688900000e-01
-8.651880000e+00  1.745544000e+01  4.010241900e+01  1.682120000e+00 -1.011560000e+00  3.884190000e-01  2.000912454e+00  7.089160000e-01
-8.043400000e+00  1.950268000e+01  3.885985300e+01  2.037600000e+00 -1.317320000e+00  2.608530000e-01  2.440325804e+00  7.340620000e-01
-7.387860000e+00  2.144205000e+01  3.743617840e+01  2.426540000e+00 -1.658950000e+00  8.617840000e-02  2.940686687e+00  7.429480000e-01
-6.689460000e+00  2.327592000e+01  3.584192500e+01  2.842840000e+00 -2.026080000e+00 -1.300750000e-01  3.493373575e+00  7.356270000e-01
-5.971440000e+00  2.500413000e+01  3.408724200e+01  3.277560000e+00 -2.405870000e+00 -3.817580000e-01  4.083668593e+00  7.144440000e-01
-5.305890000e+00  2.662026000e+01  3.217167400e+01  3.723610000e+00 -2.791740000e+00 -6.673260000e-01  4.701532479e+00  6.849900000e-01
-4.772540000e+00  2.810592000e+01  3.008323700e+01  4.181560000e+00 -3.189080000e+00 -9.877630000e-01  5.350827135e+00  6.539760000e-01
-1.356568400e+01  2.710744900e+00  4.288347300e+01  2.033160000e-01 -2.625510000e-02  1.294730000e-01  2.424664592e-01  3.731190000e-01
-1.346635500e+01  5.383703000e+00  4.273527600e+01  3.846450000e-01 -1.180970000e-01  2.752760000e-01  4.875197982e-01  4.394210000e-01
-1.317471200e+01  7.943003000e+00  4.243954300e+01  5.822880000e-01 -2.550970000e-01  3.855430000e-01  7.434898783e-01  5.169860000e-01
-1.276543300e+01  1.037339700e+01  4.197108100e+01  8.085670000e-01 -4.366030000e-01  4.510810000e-01  1.023658557e+00  5.922630000e-01
-1.227609000e+01  1.268552300e+01  4.131572800e+01  1.069910000e+00 -6.604770000e-01  4.647280000e-01  1.340488489e+00  6.576450000e-01
-1.172051000e+01  1.488662900e+01  4.046877500e+01  1.370490000e+00 -9.293710000e-01  4.247750000e-01  1.709504927e+00  7.099110000e-01
-1.110113000e+01  1.697682000e+01  3.943005600e+01  1.712870000e+00 -1.245180000e+00  3.310560000e-01  2.143360666e+00  7.463710000e-01
-1.041862000e+01  1.895516000e+01  3.820694100e+01  2.097380000e+00 -1.606840000e+00  1.859410000e-01  2.648681126e+00  7.651690000e-01
-9.674710000e+00  2.081947000e+01  3.680596700e+01  2.521290000e+00 -2.008530000e+00 -6.033000000e-03  3.223527947e+00  7.653460000e-01
-8.874810000e+00  2.257626000e+01  3.524141500e+01  2.978190000e+00 -2.437740000e+00 -2.385850000e-01  3.856049116e+00  7.479700000e-01
-8.048980000e+00  2.422664000e+01  3.352114600e+01  3.458020000e+00 -2.879360000e+00 -5.058540000e-01  4.528189992e+00  7.171130000e-01
-7.288050000e+00  2.575692000e+01  3.163655800e+01  3.953950000e+00 -3.328080000e+00 -8.084420000e-01  5.231005215e+00  6.807300000e-01
-6.684490000e+00  2.714281000e+01  2.956637000e+01  4.469510000e+00 -3.794190000e+00 -1.149630000e+00  5.974449475e+00  6.511350000e-01
-1.606038600e+01  2.618645600e+00  4.199730400e+01  1.976140000e-01 -4.245440000e-02  1.213040000e-01  2.357293564e-01  3.912170000e-01
-1.595245400e+01  5.190862000e+00  4.186024200e+01  3.665460000e-01 -1.585380000e-01  2.662420000e-01  4.799740307e-01  4.706930000e-01
-1.567215500e+01  7.671901000e+00  4.157321700e+01  5.578450000e-01 -3.230990000e-01  3.702170000e-01  7.434007230e-01  5.524460000e-01
-1.526671600e+01  1.003816200e+01  4.111443000e+01  7.842840000e-01 -5.378380000e-01  4.264300000e-01  1.042215741e+00  6.306490000e-01
-1.476312000e+01  1.229009700e+01  4.047159700e+01  1.052880000e+00 -8.009030000e-01  4.275970000e-01  1.390266559e+00  6.966040000e-01
-1.417448000e+01  1.442675000e+01  3.963993900e+01  1.367520000e+00 -1.115250000e+00  3.729390000e-01  1.803601123e+00  7.468790000e-01
-1.350449000e+01  1.644632000e+01  3.862341600e+01  1.730510000e+00 -1.482680000e+00  2.634160000e-01  2.293990591e+00  7.785510000e-01
-1.275506000e+01  1.834612000e+01  3.742665900e+01  2.141940000e+00 -1.901880000e+00  1.026590000e-01  2.866285640e+00  7.899970000e-01
-1.192885000e+01  2.012907000e+01  3.606123800e+01  2.599150000e+00 -2.365930000e+00 -1.037620000e-01  3.516244025e+00  7.809310000e-01
-1.103424000e+01  2.180068000e+01  3.453960000e+01  3.094760000e+00 -2.860320000e+00 -3.494000000e-01  4.228599097e+00  7.538750000e-01
-1.010568000e+01  2.336537000e+01  3.286698000e+01  3.619320000e+00 -3.368630000e+00 -6.280200000e-01  4.984130261e+00  7.157730000e-01
-9.254790000e+00  2.480188000e+01  3.102480100e+01  4.164210000e+00 -3.885120000e+00 -9.441990000e-01  5.772894776e+00  6.788590000e-01
-8.582560000e+00  2.607241000e+01  2.898607000e+01  4.738440000e+00 -4.427590000e+00 -1.300930000e+00  6.614286485e+00  6.643060000e-01
-1.851454300e+01  2.533371100e+00  4.095624300e+01  1.914570000e-01 -5.942890000e-02  1.102430000e-01  2.287817651e-01  4.093440000e-01
-1.839863200e+01  5.008496000e+00  4.082875300e+01  3.463680000e-01 -2.002040000e-01  2.517530000e-01  4.726859486e-01  5.035620000e-01
-1.812060500e+01  7.404187000e+00  4.055107300e+01  5.293950000e-01 -3.921130000e-01  3.470730000e-01  7.446283221e-01  5.879000000e-01
-1.771357000e+01  9.694858000e+00  4.010614900e+01  7.534300000e-01 -6.391420000e-01  3.921490000e-01  1.062986406e+00  6.673630000e-01
-1.719578000e+01  1.187380500e+01  3.947907100e+01  1.026220000e+00 -9.401950000e-01  3.800710000e-01  1.442757115e+00  7.323550000e-01
-1.657752000e+01  1.393634000e+01  3.867099400e+01  1.351480000e+00 -1.298660000e+00  3.109940000e-01  1.899929802e+00  7.793910000e-01
-1.586177000e+01  1.587642000e+01  3.768300700e+01  1.731230000e+00 -1.716580000e+00  1.870070000e-01  2.445153539e+00  8.053830000e-01
-1.505259000e+01  1.769255000e+01  3.652486510e+01  2.165410000e+00 -2.192450000e+00  1.286510000e-02  3.081558531e+00  8.090520000e-01
-1.415300000e+01  1.938717000e+01  3.520597200e+01  2.651000000e+00 -2.718830000e+00 -2.050280000e-01  3.802877075e+00  7.910570000e-01
-1.317267000e+01  2.096921000e+01  3.373936200e+01  3.181330000e+00 -3.279790000e+00 -4.596380000e-01  4.592292467e+00  7.560420000e-01
-1.215292000e+01  2.243948000e+01  3.212779300e+01  3.745080000e+00 -3.857520000e+00 -7.462070000e-01  5.427974728e+00  7.149160000e-01
-1.121805000e+01  2.377122000e+01  3.034331000e+01  4.335950000e+00 -4.447780000e+00 -1.069690000e+00  6.302971206e+00  6.871280000e-01
-1.048811000e+01  2.491627000e+01  2.834403000e+01  4.960890000e+00 -5.071730000e+00 -1.438970000e+00  7.239026830e+00  7.066670000e-01
-2.091570300e+01  2.449712500e+00  3.976207920e+01  1.842970000e-01 -7.658750000e-02  9.607920000e-02  2.214999820e-01  4.268400000e-01
-2.079262700e+01  4.829773000e+00  3.964433500e+01  3.233730000e-01 -2.415270000e-01  2.313350000e-01  4.652109963e-01  5.370250000e-01
-2.051585500e+01  7.136533000e+00  3.937797300e+01  4.961450000e-01 -4.595670000e-01  3.159730000e-01  7.464587231e-01  6.223990000e-01
-2.010498100e+01  9.344151000e+00  3.894765000e+01  7.150190000e-01 -7.368490000e-01  3.486500000e-01  1.084322573e+00  7.015660000e-01
-1.957363500e+01  1.144287000e+01  3.834405800e+01  9.883650000e-01 -1.073130000e+00  3.230580000e-01  1.494268999e+00  7.642280000e-01
-1.892832000e+01  1.342455000e+01  3.756427600e+01  1.319680000e+00 -1.472450000e+00  2.402760000e-01  1.991832538e+00  8.070500000e-01
-1.817429000e+01  1.528076000e+01  3.661541800e+01  1.710710000e+00 -1.937240000e+00  1.034180000e-01  2.586527171e+00  8.269790000e-01
-1.731392000e+01  1.700871000e+01  3.550526540e+01  2.161080000e+00 -2.466290000e+00 -8.173460000e-02  3.280172812e+00  8.232150000e-01
-1.635310000e+01  1.861214000e+01  3.424384200e+01  2.667900000e+00 -3.051860000e+00 -3.081580000e-01  4.065279969e+00  7.975100000e-01
-1.529883000e+01  2.010100000e+01  3.284546900e+01  3.224170000e+00 -3.678000000e+00 -5.685310000e-01  4.924041398e+00  7.572350000e-01
-1.419851000e+01  2.147356000e+01  3.130798700e+01  3.820490000e+00 -4.326440000e+00 -8.580130000e-01  5.835273192e+00  7.189460000e-01
-1.319786000e+01  2.269304000e+01  2.959120000e+01  4.444140000e+00 -4.991960000e+00 -1.186800000e+00  6.788117502e+00  7.107900000e-01
-1.242034000e+01  2.369607000e+01  2.765046000e+01  5.111660000e+00 -5.706930000e+00 -1.556540000e+00  7.817987897e+00  7.801060000e-01
-2.325117400e+01  2.365601800e+00  3.842088420e+01  1.758260000e-01 -9.319820000e-02  7.888420000e-02  2.140640179e-01  4.429510000e-01
-2.312379500e+01  4.651429000e+00  3.831192800e+01  2.972050000e-01 -2.805710000e-01  2.049280000e-01  4.572159044e-01  5.698010000e-01
-2.284645700e+01  6.867290000e+00  3.805717900e+01  4.575430000e-01 -5.223100000e-01  2.771790000e-01  7.476506744e-01  6.548170000e-01
-2.243284600e+01  8.988051000e+00  3.764668700e+01  6.681540000e-01 -8.263490000e-01  2.966870000e-01  1.103315736e+00  7.323510000e-01
-2.189025800e+01  1.100264000e+01  3.706978700e+01  9.377420000e-01 -1.193360000e+00  2.577870000e-01  1.539455191e+00  7.916320000e-01
-2.122547000e+01  1.289994000e+01  3.632736300e+01  1.269530000e+00 -1.628060000e+00  1.623630000e-01  2.070905002e+00  8.296930000e-01
-2.044118000e+01  1.467050000e+01  3.542531720e+01  1.664820000e+00 -2.133500000e+00  1.431720000e-02  2.706224836e+00  8.437170000e-01
-1.954106000e+01  1.631199000e+01  3.437221300e+01  2.122940000e+00 -2.709010000e+00 -1.797870000e-01  3.446437696e+00  8.335980000e-01
-1.853104000e+01  1.782443000e+01  3.318084300e+01  2.640960000e+00 -3.347570000e+00 -4.121570000e-01  4.283779642e+00  8.023430000e-01
-1.741920000e+01  1.922039000e+01  3.186025600e+01  3.212800000e+00 -4.033610000e+00 -6.757440000e-01  5.200838723e+00  7.599990000e-01
-1.625790000e+01  2.049349000e+01  3.040925700e+01  3.827100000e+00 -4.749510000e+00 -9.657430000e-01  6.175532300e+00  7.295080000e-01
-1.520577000e+01  2.159513000e+01  2.877448000e+01  4.473230000e+00 -5.492870000e+00 -1.292520000e+00  7.200834356e+00  7.490550000e-01
-1.441700000e+01  2.246110000e+01  2.689088000e+01  5.149000000e+00 -6.286900000e+00 -1.669120000e+00  8.295979399e+00  8.749630000e-01
-2.550805500e+01  2.280149000e+00  3.693898190e+01  1.659450000e-01 -1.084510000e-01  5.898190000e-02  2.068289800e-01  4.569330000e-01
-2.538011600e+01  4.472465000e+00  3.683689800e+01  2.678840000e-01 -3.153350000e-01  1.728980000e-01  4.484325123e-01  6.004410000e-01
-2.510350700e+01  6.596893000e+00  3.659643700e+01  4.134930000e-01 -5.770070000e-01  2.314370000e-01  7.466435723e-01  6.839860000e-01
-2.468964900e+01  8.629474000e+00  3.620950100e+01  6.123510000e-01 -9.028260000e-01  2.375010000e-01  1.116456564e+00  7.588870000e-01
-2.414071900e+01  1.055877000e+01  3.566597900e+01  8.732810000e-01 -1.294230000e+00  1.859790000e-01  1.572335583e+00  8.141620000e-01
-2.346196000e+01  1.237241000e+01  3.496826370e+01  1.199040000e+00 -1.756590000e+00  7.926370000e-02  2.128282896e+00  8.473890000e-01
-2.265851000e+01  1.406034000e+01  3.412073740e+01  1.590490000e+00 -2.293660000e+00 -7.826260000e-02  2.792249930e+00  8.561640000e-01
-2.173251000e+01  1.561737000e+01  3.313429000e+01  2.046490000e+00 -2.905630000e+00 -2.797100000e-01  3.564974713e+00  8.411840000e-01
-2.068994000e+01  1.704519000e+01  3.201915500e+01  2.564060000e+00 -3.586810000e+00 -5.168450000e-01  4.439227232e+00  8.070040000e-01
-1.953806000e+01  1.835232000e+01  3.078741300e+01  3.137940000e+00 -4.323680000e+00 -7.815870000e-01  5.399236467e+00  7.661050000e-01
-1.833561000e+01  1.953011000e+01  2.943061000e+01  3.756390000e+00 -5.098890000e+00 -1.071390000e+00  6.423162897e+00  7.456610000e-01
-1.726094000e+01  2.052067000e+01  2.788546000e+01  4.400060000e+00 -5.907330000e+00 -1.395540000e+00  7.496973231e+00  7.924900000e-01
-1.647886000e+01  2.123604000e+01  2.607851000e+01  5.067140000e+00 -6.788960000e+00 -1.766490000e+00  8.653691269e+00  9.707750000e-01
-2.767731900e+01  2.195171000e+00  3.532200950e+01  1.546810000e-01 -1.217290000e-01  3.700950000e-02  2.002844584e-01  4.682240000e-01
-2.755003300e+01  4.298157000e+00  3.522718000e+01  2.359670000e-01 -3.444430000e-01  1.361800000e-01  4.391655698e-01  6.275990000e-01
-2.727510100e+01  6.335855000e+00  3.500300000e+01  3.648990000e-01 -6.218450000e-01  1.800000000e-01  7.431301933e-01  7.090050000e-01
-2.686095200e+01  8.284828000e+00  3.464151200e+01  5.490480000e-01 -9.641720000e-01  1.725120000e-01  1.122872095e+00  7.807070000e-01
-2.630887100e+01  1.013350000e+01  3.413592500e+01  7.971290000e-01 -1.373500000e+00  1.089250000e-01  1.591785648e+00  8.317720000e-01
-2.562261000e+01  1.186933000e+01  3.348681604e+01  1.111390000e+00 -1.855670000e+00 -8.183960000e-03  2.163045505e+00  8.603980000e-01
-2.480478000e+01  1.348277000e+01  3.269962200e+01  1.492220000e+00 -2.415230000e+00 -1.743780000e-01  2.844374126e+00  8.647030000e-01
-2.386196000e+01  1.496567000e+01  3.178314000e+01  1.938040000e+00 -3.053330000e+00 -3.828600000e-01  3.636674980e+00  8.462600000e-01
-2.279726000e+01  1.631902000e+01  3.074962600e+01  2.445740000e+00 -3.765980000e+00 -6.253740000e-01  4.533799968e+00  8.113310000e-01
-2.161898000e+01  1.754998000e+01  2.960810000e+01  3.010020000e+00 -4.542020000e+00 -8.939000000e-01  5.521704745e+00  7.752720000e-01
-2.038841000e+01  1.864266000e+01  2.835102000e+01  3.619590000e+00 -5.365340000e+00 -1.181980000e+00  6.579162698e+00  7.670560000e-01
-1.930782000e+01  1.953848000e+01  2.689358000e+01  4.245180000e+00 -6.222520000e+00 -1.507420000e+00  7.682032507e+00  8.319540000e-01
-1.855829000e+01  2.013801000e+01  2.518874000e+01  4.863710000e+00 -7.141990000e+00 -1.871260000e+00  8.841114755e+00  1.029450000e+00
-2.974838100e+01  2.125178000e+00  3.357618260e+01  1.426190000e-01 -1.330220000e-01  1.418260000e-02  1.955407318e-01  4.772190000e-01
-2.962194600e+01  4.157781000e+00  3.348730800e+01  2.030540000e-01 -3.692190000e-01  9.630800000e-02  4.322370041e-01  6.516140000e-01
-2.934568600e+01  6.127802000e+00  3.327699800e+01  3.153140000e-01 -6.603980000e-01  1.239980000e-01  7.422425082e-01  7.314290000e-01
-2.892733500e+01  8.012120000e+00  3.294044700e+01  4.846650000e-01 -1.017380000e+00  1.014470000e-01  1.131482974e+00  8.005180000e-01
-2.836519400e+01  9.799160000e+00  3.246907810e+01  7.198060000e-01 -1.442840000e+00  2.407810000e-02  1.612602771e+00  8.479370000e-01
-2.766455000e+01  1.147589000e+01  3.186337200e+01  1.022450000e+00 -1.943110000e+00 -1.056280000e-01  2.198235144e+00  8.723250000e-01
-2.682657000e+01  1.303063000e+01  3.112956900e+01  1.392430000e+00 -2.523370000e+00 -2.834310000e-01  2.895961083e+00  8.722440000e-01
-2.585720000e+01  1.445613000e+01  3.027528100e+01  1.827800000e+00 -3.185870000e+00 -5.027190000e-01  3.707202030e+00  8.502250000e-01
-2.476293000e+01  1.575129000e+01  2.931126400e+01  2.325070000e+00 -3.927710000e+00 -7.557360000e-01  4.626444991e+00  8.147180000e-01
-2.354833000e+01  1.692113000e+01  2.824665000e+01  2.879670000e+00 -4.739870000e+00 -1.034350000e+00  5.641697160e+00  7.848550000e-01
-2.228439000e+01  1.794839000e+01  2.706872000e+01  3.476610000e+00 -5.604610000e+00 -1.332280000e+00  6.728554105e+00  7.927700000e-01
-2.116580000e+01  1.876056000e+01  2.575856000e+01  4.075200000e+00 -6.479440000e+00 -1.642440000e+00  7.828665717e+00  8.677300000e-01
-2.043861000e+01  1.929512000e+01  2.431596000e+01  4.593390000e+00 -7.293880000e+00 -1.979040000e+00  8.844010203e+00  1.037920000e+00
-3.171610600e+01  2.093391000e+00  3.170639615e+01  1.298940000e-01 -1.437090000e-01 -8.603850000e-03  1.939039818e-01  4.843790000e-01
-3.158734600e+01  4.091843000e+00  3.161899540e+01  1.706540000e-01 -3.937570000e-01  5.399540000e-02  4.325307688e-01  6.720590000e-01
-3.130264500e+01  6.028153000e+00  3.141570780e+01  2.683550000e-01 -7.002470000e-01  6.270780000e-02  7.525241094e-01  7.510540000e-01
-3.086856100e+01  7.879140000e+00  3.109221960e+01  4.264390000e-01 -1.074960000e+00  2.121960000e-02  1.156650117e+00  8.183620000e-01
-3.028358300e+01  9.632690000e+00  3.064111430e+01  6.534170000e-01 -1.521310000e+00 -7.488570000e-02  1.657391251e+00  8.628300000e-01
-2.954964500e+01  1.127452000e+01  3.006369800e+01  9.503550000e-01 -2.046480000e+00 -2.233020000e-01  2.267403537e+00  8.833220000e-01
-2.867147000e+01  1.279270000e+01  2.936314300e+01  1.316530000e+00 -2.656300000e+00 -4.198570000e-01  2.994237938e+00  8.787490000e-01
-2.765395000e+01  1.417844000e+01  2.854875700e+01  1.749050000e+00 -3.353560000e+00 -6.582430000e-01  3.839117662e+00  8.527160000e-01
-2.650373000e+01  1.542971000e+01  2.762941700e+01  2.244270000e+00 -4.136290000e+00 -9.305830000e-01  4.797043623e+00  8.168600000e-01
-2.522676000e+01  1.655058000e+01  2.661524000e+01  2.798240000e+00 -4.995420000e+00 -1.229760000e+00  5.856336545e+00  7.962950000e-01
-2.388342000e+01  1.752183000e+01  2.552639000e+01  3.391580000e+00 -5.894170000e+00 -1.542610000e+00  6.973069661e+00  8.275600000e-01
-2.262697000e+01  1.828541000e+01  2.448011000e+01  3.961030000e+00 -6.726590000e+00 -1.833890000e+00  8.018723354e+00  9.237370000e-01
-2.173056000e+01  1.877393000e+01  2.371522000e+01  4.373440000e+00 -7.307070000e+00 -2.040780000e+00  8.756999054e+00  1.032540000e+00
 1.390910000e+00  3.183396000e+01  2.897774800e+01  3.649210000e+00 -1.854040000e+00 -7.712520000e-01  4.165216392e+00  6.275230000e-01
 1.604970000e+00  3.337060000e+01  2.662336000e+01  3.910270000e+00 -2.041400000e+00 -1.046640000e+00  4.533539536e+00  6.108320000e-01
 1.759560000e+00  3.482679000e+01  2.416965000e+01  4.122560000e+00 -2.183210000e+00 -1.319350000e+00  4.847947120e+00  5.940210000e-01
 1.849920000e+00  3.620832000e+01  2.163458000e+01  4.272120000e+00 -2.266680000e+00 -1.577420000e+00  5.086954037e+00  5.793010000e-01
 1.871200000e+00  3.751756000e+01  1.903945000e+01  4.349800000e+00 -2.284440000e+00 -1.809550000e+00  5.235828240e+00  5.679070000e-01
 1.822360000e+00  3.874943000e+01  1.640343000e+01  4.352660000e+00 -2.234570000e+00 -2.006570000e+00  5.288220431e+00  5.602950000e-01
 1.707670000e+00  3.989775000e+01  1.373955000e+01  4.283970000e+00 -2.120250000e+00 -2.162450000e+00  5.246336724e+00  5.562520000e-01
 1.536120000e+00  4.094883000e+01  1.106176000e+01  4.152420000e+00 -1.949170000e+00 -2.275240000e+00  5.120407465e+00  5.549850000e-01
 1.320050000e+00  4.189082000e+01  8.378300000e+00  3.970250000e+00 -1.732180000e+00 -2.346700000e+00  4.926493023e+00  5.551980000e-01
 1.073540000e+00  4.270672000e+01  5.692600000e+00  3.751240000e+00 -1.482280000e+00 -2.382000000e+00  4.684322740e+00  5.550590000e-01
 8.105400000e-01  4.338093000e+01  3.009300000e+00  3.509140000e+00 -1.213070000e+00 -2.388000000e+00  4.414538069e+00  5.524000000e-01
 5.436300000e-01  4.389947200e+01  3.304700000e-01  3.255930000e+00 -9.375280000e-01 -2.372230000e+00  4.136123075e+00  5.444890000e-01
-5.688200000e-01  3.120420000e+01  2.865821700e+01  3.955980000e+00 -2.373800000e+00 -9.567830000e-01  4.711702231e+00  6.353430000e-01
-3.474500000e-01  3.266716000e+01  2.628208000e+01  4.267550000e+00 -2.613840000e+00 -1.266920000e+00  5.162289108e+00  6.114260000e-01
-2.010600000e-01  3.405879000e+01  2.379974000e+01  4.526440000e+00 -2.801210000e+00 -1.577260000e+00  5.551863259e+00  5.890360000e-01
-1.323500000e-01  3.539008000e+01  2.123619000e+01  4.712150000e+00 -2.917920000e+00 -1.872810000e+00  5.850301876e+00  5.704160000e-01
-1.467500000e-01  3.666608000e+01  1.861651000e+01  4.809850000e+00 -2.952920000e+00 -2.138490000e+00  6.035522598e+00  5.566360000e-01
-2.458200000e-01  3.788513000e+01  1.596190000e+01  4.813580000e+00 -2.902870000e+00 -2.361100000e+00  6.096884439e+00  5.478370000e-01
-4.238200000e-01  3.903820000e+01  1.329240000e+01  4.727080000e+00 -2.771800000e+00 -2.531600000e+00  6.036319999e+00  5.438080000e-01
-6.685100000e-01  4.011079000e+01  1.062195000e+01  4.561690000e+00 -2.569210000e+00 -2.646050000e+00  5.866126173e+00  5.441840000e-01
-9.623200000e-01  4.108694000e+01  7.957910000e+00  4.334580000e+00 -2.309060000e+00 -2.707090000e+00  5.607912101e+00  5.479870000e-01
-1.286390000e+00  4.194654000e+01  5.305440000e+00  4.064210000e+00 -2.007460000e+00 -2.721560000e+00  5.287209794e+00  5.532050000e-01
-1.621830000e+00  4.267159000e+01  2.663950000e+00  3.769070000e+00 -1.681410000e+00 -2.699650000e+00  4.931646619e+00  5.566460000e-01
-1.951970000e+00  4.324512000e+01  3.286000000e-02  3.464530000e+00 -1.346880000e+00 -2.652240000e+00  4.566336702e+00  5.534170000e-01
-2.495140000e+00  3.041183000e+01  2.827227000e+01  4.290460000e+00 -2.953170000e+00 -1.150730000e+00  5.334176562e+00  6.311850000e-01
-2.255860000e+00  3.178807000e+01  2.587439000e+01  4.662140000e+00 -3.252930000e+00 -1.498610000e+00  5.879024995e+00  6.038140000e-01
-2.106030000e+00  3.309934000e+01  2.336335000e+01  4.978370000e+00 -3.492660000e+00 -1.851650000e+00  6.357000036e+00  5.812640000e-01
-2.049440000e+00  3.436853000e+01  2.076789000e+01  5.208860000e+00 -3.646470000e+00 -2.192110000e+00  6.725645858e+00  5.644190000e-01
-2.093850000e+00  3.560335000e+01  1.811792000e+01  5.331550000e+00 -3.699650000e+00 -2.500080000e+00  6.954368090e+00  5.517890000e-01
-2.242150000e+00  3.680440000e+01  1.544237000e+01  5.336650000e+00 -3.647600000e+00 -2.756630000e+00  7.027362801e+00  5.416910000e-01
-2.488070000e+00  3.795993000e+01  1.276703000e+01  5.226930000e+00 -3.495070000e+00 -2.946970000e+00  6.944130162e+00  5.340850000e-01
-2.813360000e+00  3.905501000e+01  1.010673000e+01  5.019340000e+00 -3.254990000e+00 -3.065270000e+00  6.721950172e+00  5.305730000e-01
-3.194740000e+00  4.006742000e+01  7.471930000e+00  4.736160000e+00 -2.944580000e+00 -3.113070000e+00  6.386937274e+00  5.327470000e-01
-3.604950000e+00  4.097478000e+01  4.862550000e+00  4.404250000e+00 -2.584220000e+00 -3.101650000e+00  5.974599886e+00  5.400450000e-01
-4.020250000e+00  4.175539000e+01  2.275470000e+00  4.046850000e+00 -2.194610000e+00 -3.044830000e+00  5.519447228e+00  5.484750000e-01
-4.419030000e+00  4.238929000e+01 -2.952800000e-01  3.683470000e+00 -1.794710000e+00 -2.958180000e+00  5.053688172e+00  5.517900000e-01
-4.386860000e+00  2.946989000e+01  2.781850000e+01  4.643640000e+00 -3.587110000e+00 -1.347500000e+00  6.020507192e+00  6.262660000e-01
-4.119050000e+00  3.074154000e+01  2.540265000e+01  5.085950000e+00 -3.955460000e+00 -1.734350000e+00  6.672369979e+00  6.072220000e-01
-3.955400000e+00  3.195971000e+01  2.286123000e+01  5.469200000e+00 -4.253290000e+00 -2.135770000e+00  7.250112962e+00  5.994780000e-01
-3.898290000e+00  3.315166000e+01  2.022886000e+01  5.756310000e+00 -4.449340000e+00 -2.530140000e+00  7.702813750e+00  5.988010000e-01
-3.964550000e+00  3.433715000e+01  1.754242000e+01  5.911250000e+00 -4.520850000e+00 -2.891580000e+00  7.983871002e+00  5.963500000e-01
-4.163940000e+00  3.551616000e+01  1.484055000e+01  5.915060000e+00 -4.461840000e+00 -3.192450000e+00  8.067694094e+00  5.852810000e-01
-4.484040000e+00  3.667516000e+01  1.215645000e+01  5.774960000e+00 -4.280840000e+00 -3.410550000e+00  7.956607657e+00  5.658530000e-01
-4.902370000e+00  3.779570000e+01  9.513340000e+00  5.510630000e+00 -3.994300000e+00 -3.532660000e+00  7.668191584e+00  5.445030000e-01
-5.381710000e+00  3.884896000e+01  6.916360000e+00  5.160290000e+00 -3.625040000e+00 -3.564640000e+00  7.244043499e+00  5.304870000e-01
-5.887520000e+00  3.980886000e+01  4.364290000e+00  4.755480000e+00 -3.198140000e+00 -3.519710000e+00  6.725403183e+00  5.285880000e-01
-6.388860000e+00  4.064851000e+01  1.846000000e+00  4.328140000e+00 -2.738490000e+00 -3.419600000e+00  6.158391633e+00  5.358390000e-01
-6.859440000e+00  4.134700000e+01 -6.503000000e-01  3.900560000e+00 -2.268000000e+00 -3.285500000e+00  5.581460612e+00  5.439290000e-01
-6.249020000e+00  2.839003000e+01  2.730274000e+01  5.001980000e+00 -4.268970000e+00 -1.538260000e+00  6.753528900e+00  6.389260000e-01
-5.946630000e+00  2.954037000e+01  2.486974000e+01  5.520370000e+00 -4.713630000e+00 -1.966260000e+00  7.520569865e+00  6.518620000e-01
-5.752280000e+00  3.064306000e+01  2.229755000e+01  5.986720000e+00 -5.080940000e+00 -2.419450000e+00  8.216477709e+00  6.869710000e-01
-5.689570000e+00  3.174767000e+01  1.962300000e+01  6.334430000e+00 -5.321330000e+00 -2.878000000e+00  8.759248849e+00  7.250640000e-01
-5.773670000e+00  3.287547000e+01  1.689128000e+01  6.524330000e+00 -5.409530000e+00 -3.307720000e+00  9.097851855e+00  7.459340000e-01
-6.019210000e+00  3.403149000e+01  1.415380000e+01  6.529790000e+00 -5.337510000e+00 -3.668200000e+00  9.196894132e+00  7.351200000e-01
-6.427430000e+00  3.519814000e+01  1.146022000e+01  6.343570000e+00 -5.116860000e+00 -3.920780000e+00  9.044094892e+00  6.907100000e-01
-6.947980000e+00  3.634946000e+01  8.838120000e+00  6.013020000e+00 -4.771540000e+00 -4.049880000e+00  8.679028258e+00  6.287390000e-01
-7.539980000e+00  3.744967000e+01  6.295380000e+00  5.578020000e+00 -4.332330000e+00 -4.056620000e+00  8.144909832e+00  5.721690000e-01
-8.148670000e+00  3.846704000e+01  3.816130000e+00  5.092330000e+00 -3.829960000e+00 -3.969170000e+00  7.506978681e+00  5.382530000e-01
-8.738710000e+00  3.937081000e+01  1.383500000e+00  4.590290000e+00 -3.294190000e+00 -3.815400000e+00  6.817604213e+00  5.297040000e-01
-9.281660000e+00  4.013625000e+01 -1.023860000e+00  4.097340000e+00 -2.749750000e+00 -3.625460000e+00  6.123175675e+00  5.353470000e-01
-8.098990000e+00  2.718702000e+01  2.673021000e+01  5.340010000e+00 -4.986980000e+00 -1.716790000e+00  7.505534240e+00  6.924450000e-01
-7.752050000e+00  2.819294000e+01  2.428883000e+01  5.944950000e+00 -5.522060000e+00 -2.181170000e+00  8.401968800e+00  7.705710000e-01
-7.530900000e+00  2.916504000e+01  2.168059000e+01  6.489100000e+00 -5.965960000e+00 -2.696410000e+00  9.218010871e+00  8.873310000e-01
-7.423160000e+00  3.015609000e+01  1.895428000e+01  6.934840000e+00 -6.265910000e+00 -3.232720000e+00  9.889596177e+00  1.007140000e+00
-7.501960000e+00  3.121388000e+01  1.615999000e+01  7.180040000e+00 -6.375120000e+00 -3.753010000e+00  1.030922953e+01  1.080060000e+00
-7.815930000e+00  3.234770000e+01  1.337591000e+01  7.163070000e+00 -6.279300000e+00 -4.190090000e+00  1.040653807e+01  1.065960000e+00
-8.329490000e+00  3.353962000e+01  1.067319000e+01  6.911510000e+00 -5.995380000e+00 -4.483810000e+00  1.018911694e+01  9.654110000e-01
-8.989950000e+00  3.473632000e+01  8.090720000e+00  6.475050000e+00 -5.570680000e+00 -4.606280000e+00  9.704461016e+00  8.215140000e-01
-9.700250000e+00  3.589716000e+01  5.616380000e+00  5.948750000e+00 -5.043840000e+00 -4.580620000e+00  9.044889612e+00  6.849140000e-01
-1.041569000e+01  3.697815000e+01  3.232840000e+00  5.376310000e+00 -4.455850000e+00 -4.434760000e+00  8.272025429e+00  5.886200000e-01
-1.109049000e+01  3.794914000e+01  9.027300000e-01  4.802510000e+00 -3.838860000e+00 -4.217070000e+00  7.455509894e+00  5.421680000e-01
-1.170042000e+01  3.878207000e+01 -1.401260000e+00  4.249580000e+00 -3.218930000e+00 -3.963060000e+00  6.642761857e+00  5.328300000e-01
-9.958120000e+00  2.587743000e+01  2.611145000e+01  5.630880000e+00 -5.728570000e+00 -1.871550000e+00  8.247788990e+00  8.035550000e-01
-9.581030000e+00  2.672070000e+01  2.366099000e+01  6.305970000e+00 -6.363300000e+00 -2.378010000e+00  9.268860561e+00  9.864880000e-01
-9.296240000e+00  2.752008000e+01  2.103117000e+01  6.962760000e+00 -6.914920000e+00 -2.945830000e+00  1.024568494e+01  1.234480000e+00
-9.191280000e+00  2.837405000e+01  1.823746000e+01  7.454720000e+00 -7.289950000e+00 -3.579540000e+00  1.102403410e+01  1.478350000e+00
-9.321020000e+00  2.935304000e+01  1.537115000e+01  7.696980000e+00 -7.418960000e+00 -4.204850000e+00  1.148761212e+01  1.618650000e+00
-9.694900000e+00  3.047874000e+01  1.253161000e+01  7.663100000e+00 -7.279260000e+00 -4.732390000e+00  1.158042499e+01  1.591610000e+00
-1.030298000e+01  3.170845000e+01  9.816190000e+00  7.355020000e+00 -6.909550000e+00 -5.076810000e+00  1.129655701e+01  1.406550000e+00
-1.107355000e+01  3.298376000e+01  7.275810000e+00  6.840450000e+00 -6.367240000e+00 -5.198190000e+00  1.069367480e+01  1.134800000e+00
-1.191599000e+01  3.422013000e+01  4.907740000e+00  6.208010000e+00 -5.732870000e+00 -5.108260000e+00  9.874183856e+00  8.735120000e-01
-1.272483000e+01  3.537526000e+01  2.638420000e+00  5.561170000e+00 -5.046740000e+00 -4.892580000e+00  8.962897715e+00  6.846170000e-01
-1.347182000e+01  3.641285000e+01  4.302900000e-01  4.927180000e+00 -4.345150000e+00 -4.598010000e+00  8.018673658e+00  5.795460000e-01
-1.413062000e+01  3.731059000e+01 -1.761400000e+00  4.330380000e+00 -3.651410000e+00 -4.277300000e+00  7.097906820e+00  5.411520000e-01
-1.187245000e+01  2.449229000e+01  2.544295000e+01  5.821550000e+00 -6.463710000e+00 -2.009050000e+00  8.927836987e+00  9.733260000e-01
-1.145386000e+01  2.513107000e+01  2.301392000e+01  6.577140000e+00 -7.231930000e+00 -2.531080000e+00  1.009781898e+01  1.300840000e+00
-1.118600000e+01  2.575336000e+01  2.033188000e+01  7.261000000e+00 -7.886640000e+00 -3.185120000e+00  1.118330009e+01  1.708770000e+00
-1.110262000e+01  2.647081000e+01  1.748296000e+01  7.778380000e+00 -8.326190000e+00 -3.910040000e+00  1.204645376e+01  2.078910000e+00
-1.125938000e+01  2.737781000e+01  1.454061000e+01  8.037620000e+00 -8.460190000e+00 -4.648390000e+00  1.256127699e+01  2.275470000e+00
-1.172305000e+01  2.849523000e+01  1.165510000e+01  7.954950000e+00 -8.268770000e+00 -5.262900000e+00  1.262346637e+01  2.223340000e+00
-1.244181000e+01  2.978131000e+01  8.947360000e+00  7.571190000e+00 -7.789690000e+00 -5.644640000e+00  1.224190137e+01  1.943560000e+00
-1.331563000e+01  3.112945000e+01  6.473740000e+00  6.982370000e+00 -7.128550000e+00 -5.745260000e+00  1.151424024e+01  1.526680000e+00
-1.423563000e+01  3.246288000e+01  4.204590000e+00  6.295370000e+00 -6.360120000e+00 -5.606110000e+00  1.055989011e+01  1.111990000e+00
-1.511968000e+01  3.369686000e+01  2.083940000e+00  5.591320000e+00 -5.567140000e+00 -5.292060000e+00  9.500621357e+00  8.083240000e-01
-1.590517000e+01  3.479965000e+01 -2.500000000e-04  4.930830000e+00 -4.781350000e+00 -4.924850000e+00  8.451540678e+00  6.338650000e-01
-1.659058000e+01  3.575369000e+01 -2.073240000e+00  4.313420000e+00 -4.020310000e+00 -4.537240000e+00  7.440096196e+00  5.594190000e-01
-1.385751000e+01  2.305093000e+01  2.474784000e+01  5.891490000e+00 -7.178070000e+00 -2.107160000e+00  9.522314142e+00  1.172690000e+00
-1.348483000e+01  2.352648000e+01  2.229251000e+01  6.636170000e+00 -8.029520000e+00 -2.695490000e+00  1.076000047e+01  1.647950000e+00
-1.327511000e+01  2.396783000e+01  1.960927000e+01  7.302890000e+00 -8.782170000e+00 -3.389730000e+00  1.191423442e+01  2.192500000e+00
-1.325015000e+01  2.453710000e+01  1.670319000e+01  7.804850000e+00 -9.289900000e+00 -4.211810000e+00  1.284356917e+01  2.665030000e+00
-1.350110000e+01  2.536013000e+01  1.371919000e+01  8.009900000e+00 -9.432870000e+00 -5.034810000e+00  1.335989694e+01  2.918720000e+00
-1.404359000e+01  2.648083000e+01  1.081604000e+01  7.883410000e+00 -9.169170000e+00 -5.713960000e+00  1.337427271e+01  2.824340000e+00
-1.485828000e+01  2.783862000e+01  8.150650000e+00  7.435720000e+00 -8.559380000e+00 -6.103350000e+00  1.287648240e+01  2.422400000e+00
-1.578920000e+01  2.927867000e+01  5.778030000e+00  6.816800000e+00 -7.755330000e+00 -6.155970000e+00  1.202122591e+01  1.872350000e+00
-1.672883000e+01  3.068763000e+01  3.619840000e+00  6.132170000e+00 -6.870370000e+00 -5.961060000e+00  1.096994663e+01  1.329060000e+00
-1.762054000e+01  3.199495000e+01  1.616210000e+00  5.436460000e+00 -5.972050000e+00 -5.586790000e+00  9.820015328e+00  9.203510000e-01
-1.840920000e+01  3.315035000e+01 -3.353200000e-01  4.784800000e+00 -5.110650000e+00 -5.144420000e+00  8.687813971e+00  6.849380000e-01
-1.908566000e+01  3.414396000e+01 -2.305270000e+00  4.183340000e+00 -4.298040000e+00 -4.711470000e+00  7.627019795e+00  5.816440000e-01
-1.597648000e+01  2.168093000e+01  2.396822000e+01  5.771520000e+00 -7.746070000e+00 -2.225780000e+00  9.912927931e+00  1.339600000e+00
-1.570309000e+01  2.198629000e+01  2.154429000e+01  6.447910000e+00 -8.678710000e+00 -2.827710000e+00  1.117548632e+01  1.892850000e+00
-1.561770000e+01  2.229647000e+01  1.885465000e+01  7.028300000e+00 -9.472530000e+00 -3.570350000e+00  1.232368551e+01  2.514100000e+00
-1.572925000e+01  2.274650000e+01  1.595833000e+01  7.429750000e+00 -1.001150000e+01 -4.426670000e+00  1.322976661e+01  3.046160000e+00
-1.609410000e+01  2.351790000e+01  1.298645000e+01  7.556900000e+00 -1.012410000e+01 -5.286550000e+00  1.369495343e+01  3.311300000e+00
-1.674755000e+01  2.465294000e+01  1.013446000e+01  7.351450000e+00 -9.771060000e+00 -5.966540000e+00  1.360577194e+01  3.155460000e+00
-1.758612000e+01  2.605099000e+01  7.563440000e+00  6.907880000e+00 -9.055010000e+00 -6.316560000e+00  1.302347659e+01  2.655490000e+00
-1.850036000e+01  2.754256000e+01  5.292020000e+00  6.329640000e+00 -8.143440000e+00 -6.327980000e+00  1.210054910e+01  2.028280000e+00
-1.939339000e+01  2.898878000e+01  3.240660000e+00  5.711610000e+00 -7.174220000e+00 -6.086940000e+00  1.100648718e+01  1.429140000e+00
-2.023029000e+01  3.032984000e+01  1.322180000e+00  5.086710000e+00 -6.206160000e+00 -5.690420000e+00  9.837271997e+00  9.760770000e-01
-2.097435000e+01  3.150665000e+01 -5.335700000e-01  4.490650000e+00 -5.298350000e+00 -5.215670000e+00  8.685716073e+00  7.155650000e-01
-2.160950000e+01  3.251338000e+01 -2.426480000e+00  3.937500000e+00 -4.457620000e+00 -4.769180000e+00  7.623605458e+00  6.007020000e-01
-1.817674000e+01  2.046366000e+01  2.316329000e+01  5.469260000e+00 -8.097340000e+00 -2.333710000e+00  1.004618945e+01  1.403960000e+00
-1.807130000e+01  2.065914000e+01  2.082086000e+01  6.015700000e+00 -9.023860000e+00 -2.923140000e+00  1.123225014e+01  1.941500000e+00
-1.817407000e+01  2.087825000e+01  1.818859000e+01  6.446930000e+00 -9.803750000e+00 -3.662410000e+00  1.229185370e+01  2.540230000e+00
-1.847805000e+01  2.129850000e+01  1.536892000e+01  6.692950000e+00 -1.027650000e+01 -4.491080000e+00  1.306031514e+01  3.037000000e+00
-1.899636000e+01  2.204340000e+01  1.249634000e+01  6.699640000e+00 -1.032860000e+01 -5.301660000e+00  1.340420654e+01  3.240850000e+00
-1.968999000e+01  2.316544000e+01  9.763660000e+00  6.484010000e+00 -9.911560000e+00 -5.915340000e+00  1.323905792e+01  3.045620000e+00
-2.050185000e+01  2.454370000e+01  7.300960000e+00  6.094150000e+00 -9.146300000e+00 -6.213040000e+00  1.262518649e+01  2.548420000e+00
-2.133824000e+01  2.600543000e+01  5.114650000e+00  5.616760000e+00 -8.205570000e+00 -6.198350000e+00  1.171746195e+01  1.935530000e+00
-2.214573000e+01  2.743102000e+01  3.122600000e+00  5.104270000e+00 -7.208980000e+00 -5.959900000e+00  1.065567327e+01  1.367090000e+00
-2.289221000e+01  2.874553000e+01  1.266560000e+00  4.585790000e+00 -6.230470000e+00 -5.563440000e+00  9.528908173e+00  9.545790000e-01
-2.355996000e+01  2.989565000e+01 -5.611500000e-01  4.078040000e+00 -5.322350000e+00 -5.123550000e+00  8.438517901e+00  7.187190000e-01
-2.413731000e+01  3.088461000e+01 -2.409440000e+00  3.592690000e+00 -4.482390000e+00 -4.695240000e+00  7.419199432e+00  6.129180000e-01
-2.027969000e+01  1.947803000e+01  2.254831000e+01  5.037310000e+00 -8.145970000e+00 -2.371690000e+00  9.866926205e+00  1.344970000e+00
-2.042663000e+01  1.962143000e+01  2.033918000e+01  5.407370000e+00 -8.945570000e+00 -2.931820000e+00  1.085626278e+01  1.790590000e+00
-2.077429000e+01  1.980623000e+01  1.784563000e+01  5.658710000e+00 -9.632770000e+00 -3.594370000e+00  1.173587459e+01  2.273700000e+00
-2.126654000e+01  2.020850000e+01  1.514728000e+01  5.769460000e+00 -1.002450000e+01 -4.347720000e+00  1.235637237e+01  2.642130000e+00
-2.189258000e+01  2.095196000e+01  1.242415000e+01  5.712420000e+00 -9.995040000e+00 -5.047850000e+00  1.257033637e+01  2.765390000e+00
-2.262294000e+01  2.200235000e+01  9.820740000e+00  5.498060000e+00 -9.577650000e+00 -5.571260000e+00  1.236927570e+01  2.587730000e+00
-2.338647000e+01  2.328488000e+01  7.439200000e+00  5.188530000e+00 -8.846120000e+00 -5.828800000e+00  1.179616853e+01  2.168620000e+00
-2.414039000e+01  2.465204000e+01  5.286050000e+00  4.822610000e+00 -7.947960000e+00 -5.822950000e+00  1.096970292e+01  1.650630000e+00
-2.485840000e+01  2.599824000e+01  3.316900000e+00  4.423600000e+00 -6.986760000e+00 -5.604100000e+00  9.989443882e+00  1.191470000e+00
-2.551863000e+01  2.723255000e+01  1.455530000e+00  4.011370000e+00 -6.053450000e+00 -5.256670000e+00  8.964815986e+00  8.766150000e-01
-2.611278000e+01  2.832044000e+01 -3.929400000e-01  3.593220000e+00 -5.182560000e+00 -4.881340000e+00  7.974812745e+00  6.995620000e-01
-2.663178000e+01  2.926536000e+01 -2.246500000e+00  3.178220000e+00 -4.369640000e+00 -4.498100000e+00  7.030486449e+00  6.211830000e-01
-2.209355000e+01  1.877743000e+01  2.235703000e+01  4.535450000e+00 -7.808570000e+00 -2.322970000e+00  9.324176198e+00  1.202960000e+00
-2.259960000e+01  1.879859000e+01  2.035539000e+01  4.713400000e+00 -8.479410000e+00 -2.773610000e+00  1.009006670e+01  1.498100000e+00
-2.318728000e+01  1.899502000e+01  1.797233000e+01  4.836720000e+00 -9.009980000e+00 -3.366670000e+00  1.076606088e+01  1.823030000e+00
-2.386831000e+01  1.938651000e+01  1.542082000e+01  4.841690000e+00 -9.315490000e+00 -3.994180000e+00  1.123271071e+01  2.053820000e+00
-2.460311000e+01  2.005211000e+01  1.282490000e+01  4.739890000e+00 -9.290890000e+00 -4.581100000e+00  1.139182476e+01  2.110310000e+00
-2.534773000e+01  2.101396000e+01  1.031707000e+01  4.565270000e+00 -8.903040000e+00 -5.019930000e+00  1.119399431e+01  1.966270000e+00
-2.608927000e+01  2.216505000e+01  7.969900000e+00  4.323730000e+00 -8.252950000e+00 -5.252100000e+00  1.069534381e+01  1.656910000e+00
-2.679505000e+01  2.340818000e+01  5.811110000e+00  4.043950000e+00 -7.435820000e+00 -5.260890000e+00  9.966038043e+00  1.292670000e+00
-2.744375000e+01  2.463265000e+01  3.802470000e+00  3.746250000e+00 -6.561350000e+00 -5.090830000e+00  9.110557226e+00  9.870030000e-01
-2.804612000e+01  2.575801000e+01  1.860340000e+00  3.417880000e+00 -5.708990000e+00 -4.833160000e+00  8.223983591e+00  7.848330000e-01
-2.858660000e+01  2.676969000e+01 -4.528000000e-02  3.074400000e+00 -4.893310000e+00 -4.522880000e+00  7.338450900e+00  6.760950000e-01
-2.905682000e+01  2.765116000e+01 -1.953160000e+00  2.723180000e+00 -4.128840000e+00 -4.200060000e+00  6.488723531e+00  6.325330000e-01
-3.357208400e+01  2.104786000e+00  2.971751600e+01  1.159160000e-01 -1.535140000e-01 -3.148400000e-02  1.949212905e-01  4.898910000e-01
-3.531205700e+01  2.143853000e+00  2.761462320e+01  9.994300000e-02 -1.614470000e-01 -5.537680000e-02  1.977885918e-01  4.942410000e-01
-3.692836790e+01  2.197193000e+00  2.540878630e+01  8.163210000e-02 -1.658070000e-01 -8.021370000e-02  2.014695974e-01  4.969690000e-01
-3.841333870e+01  2.256594000e+00  2.310670900e+01  6.166130000e-02 -1.656060000e-01 -1.052910000e-01  2.057028387e-01  4.970900000e-01
-3.976102790e+01  2.318051000e+00  2.071925100e+01  4.097210000e-02 -1.605490000e-01 -1.297490000e-01  2.104507006e-01  4.940360000e-01
-4.096349410e+01  2.379422000e+00  1.825730100e+01  2.050590000e-02 -1.508780000e-01 -1.526990000e-01  2.156424064e-01  4.875510000e-01
-4.201689718e+01  2.439056000e+00  1.572860500e+01  1.102820000e-03 -1.372440000e-01 -1.733950000e-01  2.211401315e-01  4.776390000e-01
-4.291453480e+01  2.495755000e+00  1.314570600e+01 -1.653480000e-02 -1.205450000e-01 -1.912940000e-01  2.267110299e-01  4.645660000e-01
-4.365486760e+01  2.548425000e+00  1.051893100e+01 -3.186760000e-02 -1.017750000e-01 -2.060690000e-01  2.320304448e-01  4.488380000e-01
-4.423348380e+01  2.595636200e+00  7.857026000e+00 -4.448380000e-02 -8.196380000e-02 -2.175740000e-01  2.367178034e-01  4.311100000e-01
-4.464819680e+01  2.636501000e+00  5.171421000e+00 -5.419680000e-02 -6.209900000e-02 -2.258790000e-01  2.404472948e-01  4.121250000e-01
-4.489777070e+01  2.669177500e+00  2.471640000e+00 -6.077070000e-02 -4.312250000e-02 -2.310600000e-01  2.427784002e-01  3.923920000e-01
-3.344015700e+01  4.107038000e+00  2.962407090e+01  1.378430000e-01 -4.177620000e-01  9.070900000e-03  4.400091619e-01  6.874760000e-01
-3.517740300e+01  4.176336000e+00  2.750883500e+01  1.035970000e-01 -4.386640000e-01 -4.016500000e-02  4.525170389e-01  6.978380000e-01
-3.679250350e+01  4.275724000e+00  2.528431580e+01  6.749650000e-02 -4.517760000e-01 -9.268420000e-02  4.660983723e-01  7.019620000e-01
-3.827752410e+01  4.390423000e+00  2.296218600e+01  3.047590000e-02 -4.540770000e-01 -1.468140000e-01  4.781935309e-01  6.982020000e-01
-3.962504388e+01  4.512220000e+00  2.055443200e+01 -6.043880000e-03 -4.443800000e-01 -2.005680000e-01  4.875834652e-01  6.863300000e-01
-4.082857860e+01  4.636447000e+00  1.807105200e+01 -4.057860000e-02 -4.229530000e-01 -2.519480000e-01  4.939773858e-01  6.669790000e-01
-4.188179470e+01  4.759778000e+00  1.552478900e+01 -7.179470000e-02 -3.911220000e-01 -2.992110000e-01  4.976526101e-01  6.412490000e-01
-4.277859960e+01  4.879270000e+00  1.292698500e+01 -9.859960000e-02 -3.509300000e-01 -3.410150000e-01  4.991642778e-01  6.105070000e-01
-4.351622400e+01  4.992072000e+00  1.028851000e+01 -1.202240000e-01 -3.048280000e-01 -3.764900000e-01  4.991178617e-01  5.762550000e-01
-4.409011600e+01  5.095299000e+00  7.621866000e+00 -1.361160000e-01 -2.553010000e-01 -4.051340000e-01  4.978350369e-01  5.399460000e-01
-4.449919700e+01  5.186072000e+00  4.936661000e+00 -1.461970000e-01 -2.048280000e-01 -4.269390000e-01  4.955854943e-01  5.028570000e-01
-4.474197600e+01  5.261081000e+00  2.243390000e+00 -1.499760000e-01 -1.554190000e-01 -4.417100000e-01  4.916864755e-01  4.655390000e-01
-3.314158600e+01  6.044262000e+00  2.941839567e+01  2.234140000e-01 -7.413380000e-01 -4.604330000e-03  7.742848607e-01  7.657690000e-01
-3.486275400e+01  6.139298000e+00  2.729377990e+01  1.782460000e-01 -7.787020000e-01 -7.922010000e-02  8.027604036e-01  7.760530000e-01
-3.646091700e+01  6.280490000e+00  2.505627600e+01  1.310830000e-01 -8.039100000e-01 -1.587240000e-01  8.298477867e-01  7.808930000e-01
-3.793274810e+01  6.446985000e+00  2.272003800e+01  8.225190000e-02 -8.113150000e-01 -2.399620000e-01  8.500465668e-01  7.782760000e-01
-3.926996190e+01  6.627053000e+00  2.029828400e+01  3.303810000e-02 -7.983470000e-01 -3.197160000e-01  8.606205721e-01  7.678060000e-01
-4.046688140e+01  6.813786000e+00  1.780404200e+01 -1.488140000e-02 -7.650140000e-01 -3.949580000e-01  8.610805410e-01  7.499310000e-01
-4.151476980e+01  7.001636000e+00  1.525079700e+01 -5.976980000e-02 -7.133640000e-01 -4.632030000e-01  8.526532969e-01  7.254780000e-01
-4.241006700e+01  7.185812000e+00  1.264928500e+01 -1.000670000e-01 -6.468880000e-01 -5.227150000e-01  8.376804046e-01  6.954600000e-01
-4.314645900e+01  7.361147000e+00  1.001249600e+01 -1.344590000e-01 -5.697530000e-01 -5.725040000e-01  8.188153233e-01  6.609970000e-01
-4.372091700e+01  7.522871000e+00  7.352023000e+00 -1.619170000e-01 -4.863290000e-01 -6.121770000e-01  7.984320199e-01  6.231650000e-01
-4.413182600e+01  7.666371000e+00  4.678373000e+00 -1.818260000e-01 -4.007290000e-01 -6.419270000e-01  7.782767497e-01  5.828080000e-01
-4.437762700e+01  7.785965000e+00  2.000847000e+00 -1.936270000e-01 -3.165350000e-01 -6.620530000e-01  7.589466359e-01  5.397940000e-01
-3.268279000e+01  7.893410000e+00  2.909626680e+01  3.742100000e-01 -1.137090000e+00 -6.973320000e-02  1.199111968e+00  8.314620000e-01
-3.437341000e+01  8.009290000e+00  2.696564500e+01  3.235900000e-01 -1.195710000e+00 -1.713550000e-01  1.250518064e+00  8.408270000e-01
-3.594234800e+01  8.186950000e+00  2.471785900e+01  2.706520000e-01 -1.237650000e+00 -2.791410000e-01  1.297285522e+00  8.457860000e-01
-3.738668200e+01  8.400980000e+00  2.237098700e+01  2.143180000e-01 -1.253620000e+00 -3.880130000e-01  1.329680186e+00  8.441110000e-01
-3.870271400e+01  8.636950000e+00  1.994087200e+01  1.552860000e-01 -1.238850000e+00 -4.931280000e-01  1.342400197e+00  8.353220000e-01
-3.988285670e+01  8.886000000e+00  1.744275900e+01  9.514330000e-02 -1.193000000e+00 -5.902410000e-01  1.334423353e+00  8.196900000e-01
-4.092012080e+01  9.140030000e+00  1.489082100e+01  3.587920000e-02 -1.118970000e+00 -6.761790000e-01  1.307898780e+00  7.977020000e-01
-4.181035780e+01  9.391120000e+00  1.229704700e+01 -2.035780000e-02 -1.021880000e+00 -7.489530000e-01  1.267116321e+00  7.699170000e-01
-4.254561970e+01  9.633907000e+00  9.673237000e+00 -7.161970000e-02 -9.080930000e-01 -8.077630000e-01  1.217474165e+00  7.369610000e-01
-4.312311800e+01  9.858633000e+00  7.031352000e+00 -1.161180000e-01 -7.843670000e-01 -8.526480000e-01  1.164355441e+00  6.994290000e-01
-4.353960100e+01  1.005991200e+01  4.381057000e+00 -1.526010000e-01 -6.570880000e-01 -8.845430000e-01  1.112415401e+00  6.577060000e-01
-4.379478100e+01  1.022860200e+01  1.730940000e+00 -1.797810000e-01 -5.313980000e-01 -9.042600000e-01  1.064138708e+00  6.109620000e-01
-3.206062300e+01  9.641250000e+00  2.865018400e+01  5.983770000e-01 -1.609750000e+00 -1.908160000e-01  1.727935428e+00  8.731230000e-01
-3.370663400e+01  9.771210000e+00  2.651467100e+01  5.473660000e-01 -1.695790000e+00 -3.213290000e-01  1.810680974e+00  8.802090000e-01
-3.523056900e+01  9.978870000e+00  2.425758500e+01  4.934310000e-01 -1.760130000e+00 -4.594150000e-01  1.884832595e+00  8.839880000e-01
-3.663539300e+01  1.023544000e+01  2.190360700e+01  4.336070000e-01 -1.788560000e+00 -5.973930000e-01  1.934900592e+00  8.824550000e-01
-3.791744500e+01  1.052433000e+01  1.947076200e+01  3.675550000e-01 -1.773670000e+00 -7.282380000e-01  1.952263438e+00  8.753070000e-01
-3.907244000e+01  1.083473000e+01  1.697584100e+01  2.965600000e-01 -1.714270000e+00 -8.461590000e-01  1.934594149e+00  8.626920000e-01
-4.009212500e+01  1.115674000e+01  1.443393900e+01  2.228750000e-01 -1.614260000e+00 -9.470610000e-01  1.884789949e+00  8.446890000e-01
-4.097192300e+01  1.148008000e+01  1.185918000e+01  1.490770000e-01 -1.480920000e+00 -1.028820000e+00  1.809369667e+00  8.212750000e-01
-4.170416170e+01  1.179450000e+01  9.260960000e+00  7.783830000e-02 -1.323500000e+00 -1.091040000e+00  1.716997185e+00  7.924350000e-01
-4.228521570e+01  1.208939000e+01  6.650580000e+00  1.178430000e-02 -1.151610000e+00 -1.134720000e+00  1.616766508e+00  7.581260000e-01
-4.271186650e+01  1.235460800e+01  4.037100000e+00 -4.686650000e-02 -9.743920000e-01 -1.161800000e+00  1.517041686e+00  7.181090000e-01
-4.298226460e+01  1.257953900e+01  1.427100000e+00 -9.626460000e-02 -7.994610000e-01 -1.174500000e+00  1.424027743e+00  6.708580000e-01
-3.127783100e+01  1.127135000e+01  2.808123300e+01  8.961690000e-01 -2.167650000e+00 -3.657670000e-01  2.373944165e+00  8.897470000e-01
-3.286624900e+01  1.140861000e+01  2.594238300e+01  8.487510000e-01 -2.288390000e+00 -5.276170000e-01  2.497095663e+00  8.931260000e-01
-3.433340800e+01  1.163820000e+01  2.367810000e+01  7.975920000e-01 -2.381800000e+00 -6.989000000e-01  2.607217952e+00  8.941660000e-01
-3.568466800e+01  1.193061000e+01  2.131833000e+01  7.373320000e-01 -2.427390000e+00 -8.686700000e-01  2.681504850e+00  8.916380000e-01
-3.692256700e+01  1.226798000e+01  1.888590000e+01  6.664330000e-01 -2.414020000e+00 -1.027100000e+00  2.706761887e+00  8.856460000e-01
-3.804104200e+01  1.263957000e+01  1.639985000e+01  5.859580000e-01 -2.339430000e+00 -1.166150000e+00  2.678840295e+00  8.763080000e-01
-3.903676500e+01  1.303239000e+01  1.387657000e+01  4.982350000e-01 -2.208610000e+00 -1.280430000e+00  2.601095391e+00  8.633230000e-01
-3.990073700e+01  1.343317000e+01  1.132953000e+01  4.062630000e-01 -2.031830000e+00 -1.367470000e+00  2.482610919e+00  8.460240000e-01
-4.062779500e+01  1.382701000e+01  8.769340000e+00  3.132050000e-01 -1.821990000e+00 -1.427660000e+00  2.335799222e+00  8.236240000e-01
-4.121154500e+01  1.419935000e+01  6.204270000e+00  2.224550000e-01 -1.592650000e+00 -1.463330000e+00  2.174248132e+00  7.953290000e-01
-4.165073300e+01  1.453687000e+01  3.641570000e+00  1.372670000e-01 -1.356130000e+00 -1.478230000e+00  2.010744822e+00  7.601070000e-01
-4.194065440e+01  1.482720000e+01  1.085580000e+00  6.034560000e-02 -1.122800000e+00 -1.476220000e+00  1.855679638e+00  7.156590000e-01
-3.034031000e+01  1.277141000e+01  2.739249800e+01  1.265690000e+00 -2.817590000e+00 -5.905020000e-01  3.144753917e+00  8.806110000e-01
-3.185938000e+01  1.290577000e+01  2.525254500e+01  1.224620000e+00 -2.981230000e+00 -7.864550000e-01  3.317519845e+00  8.792340000e-01
-3.325656000e+01  1.314807000e+01  2.298233400e+01  1.178440000e+00 -3.110930000e+00 -9.946660000e-01  3.472170323e+00  8.762680000e-01
-3.454460000e+01  1.346745000e+01  2.061672000e+01  1.119400000e+00 -3.178550000e+00 -1.200280000e+00  3.577276693e+00  8.715880000e-01
-3.572706000e+01  1.385009000e+01  1.818630000e+01  1.044940000e+00 -3.167910000e+00 -1.389700000e+00  3.613698862e+00  8.659260000e-01
-3.680210300e+01  1.428286000e+01  1.571226000e+01  9.558970000e-01 -3.075140000e+00 -1.551740000e+00  3.574649930e+00  8.595670000e-01
-3.776312900e+01  1.475079000e+01  1.321407000e+01  8.548710000e-01 -2.907210000e+00 -1.678930000e+00  3.464315279e+00  8.519270000e-01
-3.860605300e+01  1.523591000e+01  1.070572000e+01  7.449470000e-01 -2.678090000e+00 -1.768280000e+00  3.294529745e+00  8.417980000e-01
-3.932340100e+01  1.571840000e+01  8.195090000e+00  6.295990000e-01 -2.405600000e+00 -1.820910000e+00  3.082047937e+00  8.276450000e-01
-3.990944800e+01  1.617787000e+01  5.689490000e+00  5.125520000e-01 -2.108130000e+00 -1.841510000e+00  2.845712693e+00  8.078150000e-01
-4.035997500e+01  1.659684000e+01  3.192240000e+00  3.980250000e-01 -1.802160000e+00 -1.836060000e+00  2.603328809e+00  7.804320000e-01
-4.067239700e+01  1.695989000e+01  7.046800000e-01  2.896030000e-01 -1.501110000e+00 -1.811220000e+00  2.370172782e+00  7.423430000e-01
-2.925288000e+01  1.413106000e+01  2.659346400e+01  1.703120000e+00 -3.562940000e+00 -8.585360000e-01  4.041317018e+00  8.507710000e-01
-3.069362000e+01  1.425333000e+01  2.445313000e+01  1.669380000e+00 -3.777670000e+00 -1.091870000e+00  4.271978501e+00  8.453610000e-01
-3.201121000e+01  1.449577000e+01  2.217535000e+01  1.628790000e+00 -3.951230000e+00 -1.341650000e+00  4.479419616e+00  8.387880000e-01
-3.322607000e+01  1.483638000e+01  1.980453000e+01  1.570930000e+00 -4.044620000e+00 -1.588470000e+00  4.620606989e+00  8.318940000e-01
-3.434536000e+01  1.526093000e+01  1.737486000e+01  1.492640000e+00 -4.036070000e+00 -1.814140000e+00  4.670004192e+00  8.255820000e-01
-3.536862000e+01  1.575751000e+01  1.491523000e+01  1.395380000e+00 -3.920490000e+00 -2.002770000e+00  4.618269682e+00  8.203620000e-01
-3.628914000e+01  1.630636000e+01  1.244855000e+01  1.281860000e+00 -3.706640000e+00 -2.143450000e+00  4.469532755e+00  8.161900000e-01
-3.710303000e+01  1.688353000e+01  9.986790000e+00  1.154970000e+00 -3.414470000e+00 -2.232210000e+00  4.239731426e+00  8.120130000e-01
-3.780521000e+01  1.746294000e+01  7.538750000e+00  1.017790000e+00 -3.068060000e+00 -2.271950000e+00  3.951030935e+00  8.059000000e-01
-3.838973200e+01  1.801948000e+01  5.106480000e+00  8.742680000e-01 -2.691520000e+00 -2.269520000e+00  3.627581216e+00  7.956220000e-01
-3.885213300e+01  1.852949000e+01  2.689270000e+00  7.288670000e-01 -2.306510000e+00 -2.235330000e+00  3.293620454e+00  7.783340000e-01
-3.918742000e+01  1.897492000e+01  2.850500000e-01  5.865800000e-01 -1.929080000e+00 -2.178950000e+00  2.968711647e+00  7.497540000e-01
-2.802537000e+01  1.534797000e+01  2.569250000e+01  2.203630000e+00 -4.401030000e+00 -1.162500000e+00  5.057317124e+00  8.159040000e-01
-2.937853000e+01  1.544534000e+01  2.355160000e+01  2.177470000e+00 -4.675660000e+00 -1.436400000e+00  5.354102819e+00  8.123190000e-01
-3.060882000e+01  1.567967000e+01  2.126555000e+01  2.141180000e+00 -4.898330000e+00 -1.733450000e+00  5.619887675e+00  8.075770000e-01
-3.174471000e+01  1.603375000e+01  1.888595000e+01  2.082290000e+00 -5.021250000e+00 -2.029050000e+00  5.802234665e+00  8.011140000e-01
-3.279434000e+01  1.649884000e+01  1.645600000e+01  1.998660000e+00 -5.012160000e+00 -2.298000000e+00  5.864912076e+00  7.931100000e-01
-3.375736000e+01  1.706364000e+01  1.401252000e+01  1.892640000e+00 -4.863360000e+00 -2.517480000e+00  5.794140334e+00  7.844530000e-01
-3.463104000e+01  1.770240000e+01  1.158123000e+01  1.766960000e+00 -4.591600000e+00 -2.672770000e+00  5.598985415e+00  7.765530000e-01
-3.540967000e+01  1.838265000e+01  9.175730000e+00  1.624330000e+00 -4.223350000e+00 -2.758270000e+00  5.299357184e+00  7.705970000e-01
-3.609118000e+01  1.907031000e+01  6.803360000e+00  1.466820000e+00 -3.790690000e+00 -2.777540000e+00  4.922968621e+00  7.669770000e-01
-3.667033000e+01  1.973103000e+01  4.458680000e+00  1.296670000e+00 -3.325970000e+00 -2.744320000e+00  4.502746028e+00  7.638000000e-01
-3.714080000e+01  2.034006000e+01  2.136830000e+00  1.120200000e+00 -2.853940000e+00 -2.672270000e+00  4.067044199e+00  7.564180000e-01
-3.749929600e+01  2.087465000e+01 -1.695200000e-01  9.427040000e-01 -2.394350000e+00 -2.575720000e+00  3.640870263e+00  7.389910000e-01
-2.666054000e+01  1.642298000e+01  2.470619000e+01  2.763460000e+00 -5.322020000e+00 -1.492810000e+00  6.179732174e+00  8.094030000e-01
-2.791510000e+01  1.648620000e+01  2.257183000e+01  2.744900000e+00 -5.659800000e+00 -1.811170000e+00  6.545849740e+00  8.230460000e-01
-2.905134000e+01  1.669944000e+01  2.027878000e+01  2.711660000e+00 -5.941560000e+00 -2.161220000e+00  6.879397290e+00  8.372500000e-01
-3.010154000e+01  1.706464000e+01  1.788773000e+01  2.650460000e+00 -6.089360000e+00 -2.513270000e+00  7.100828791e+00  8.434410000e-01
-3.107788000e+01  1.757591000e+01  1.545458000e+01  2.558120000e+00 -6.070090000e+00 -2.834420000e+00  7.171046456e+00  8.345350000e-01
-3.197924000e+01  1.821471000e+01  1.302284000e+01  2.439760000e+00 -5.880290000e+00 -3.093160000e+00  7.077985457e+00  8.114410000e-01
-3.279924000e+01  1.895760000e+01  1.063071000e+01  2.302760000e+00 -5.533400000e+00 -3.263290000e+00  6.824242141e+00  7.799350000e-01
-3.353752000e+01  1.975627000e+01  8.294020000e+00  2.145480000e+00 -5.071730000e+00 -3.337980000e+00  6.439537259e+00  7.508030000e-01
-3.419536000e+01  2.055960000e+01  6.007140000e+00  1.965640000e+00 -4.543400000e+00 -3.330760000e+00  5.966589172e+00  7.328100000e-01
-3.476568000e+01  2.133369000e+01  3.764170000e+00  1.769320000e+00 -3.982310000e+00 -3.256830000e+00  5.440241525e+00  7.254590000e-01
-3.524409000e+01  2.204425000e+01  1.550490000e+00  1.560910000e+00 -3.419750000e+00 -3.138110000e+00  4.896821874e+00  7.220890000e-01
-3.562379000e+01  2.267054000e+01 -6.462000000e-01  1.347210000e+00 -2.876460000e+00 -2.993400000e+00  4.364566471e+00  7.141970000e-01
-2.518234000e+01  1.734934000e+01  2.369703000e+01  3.367660000e+00 -6.277660000e+00 -1.829970000e+00  7.355198104e+00  8.740700000e-01
-2.630070000e+01  1.736961000e+01  2.160264000e+01  3.363300000e+00 -6.692390000e+00 -2.190360000e+00  7.803688085e+00  9.325950000e-01
-2.731312000e+01  1.756695000e+01  1.930799000e+01  3.344880000e+00 -7.029050000e+00 -2.604010000e+00  8.208327125e+00  9.990480000e-01
-2.827322000e+01  1.791719000e+01  1.689748000e+01  3.277780000e+00 -7.231810000e+00 -3.028520000e+00  8.497932160e+00  1.049870000e+00
-2.917807000e+01  1.846758000e+01  1.444355000e+01  3.171930000e+00 -7.211420000e+00 -3.418450000e+00  8.587870443e+00  1.050820000e+00
-3.001186000e+01  1.921968000e+01  1.202087000e+01  3.047140000e+00 -6.941320000e+00 -3.718130000e+00  8.443427990e+00  9.904300000e-01
-3.078065000e+01  2.009476000e+01  9.667270000e+00  2.895350000e+00 -6.491240000e+00 -3.900730000e+00  8.107708856e+00  8.972230000e-01
-3.148685000e+01  2.102295000e+01  7.395920000e+00  2.714150000e+00 -5.926050000e+00 -3.964080000e+00  7.628801287e+00  8.073680000e-01
-3.212128000e+01  2.195845000e+01  5.204490000e+00  2.511720000e+00 -5.287550000e+00 -3.916910000e+00  7.043373219e+00  7.408060000e-01
-3.268715000e+01  2.284826000e+01  3.068090000e+00  2.284850000e+00 -4.626740000e+00 -3.792710000e+00  6.404054317e+00  7.031820000e-01
-3.317476000e+01  2.366338000e+01  9.670000000e-01  2.041240000e+00 -3.973620000e+00 -3.617900000e+00  5.748523032e+00  6.883640000e-01
-3.357740000e+01  2.438134000e+01 -1.120460000e+00  1.788600000e+00 -3.348660000e+00 -3.418160000e+00  5.108466653e+00  6.826140000e-01
-2.364878000e+01  1.811838000e+01  2.283891000e+01  3.969220000e+00 -7.156620000e+00 -2.130090000e+00  8.456311290e+00  1.023740000e+00
-2.451944000e+01  1.812632000e+01  2.081745000e+01  4.027560000e+00 -7.656680000e+00 -2.533550000e+00  9.014702645e+00  1.173070000e+00
-2.536564000e+01  1.826412000e+01  1.853076000e+01  4.041360000e+00 -8.120880000e+00 -3.011240000e+00  9.557659178e+00  1.344340000e+00
-2.618623000e+01  1.865008000e+01  1.607314000e+01  4.010770000e+00 -8.345920000e+00 -3.531860000e+00  9.910332573e+00  1.471850000e+00
-2.699970000e+01  1.927841000e+01  1.356989000e+01  3.913300000e+00 -8.295590000e+00 -4.010110000e+00  1.001058003e+01  1.491610000e+00
-2.780546000e+01  2.010766000e+01  1.111389000e+01  3.745540000e+00 -7.990340000e+00 -4.379110000e+00  9.851457131e+00  1.382290000e+00
-2.855350000e+01  2.111952000e+01  8.777080000e+00  3.554500000e+00 -7.439480000e+00 -4.581920000e+00  9.432620198e+00  1.189830000e+00
-2.923218000e+01  2.221754000e+01  6.572830000e+00  3.349820000e+00 -6.735460000e+00 -4.613170000e+00  8.824344332e+00  9.867280000e-01
-2.986522000e+01  2.329110000e+01  4.466290000e+00  3.107780000e+00 -5.983900000e+00 -4.518810000e+00  8.116957531e+00  8.237650000e-01
-3.043886000e+01  2.430458000e+01  2.431330000e+00  2.840140000e+00 -5.221420000e+00 -4.330470000e+00  7.354086786e+00  7.200660000e-01
-3.094699000e+01  2.522353000e+01  4.306200000e-01  2.552010000e+00 -4.481470000e+00 -4.091480000e+00  6.583049217e+00  6.698880000e-01
-3.138020000e+01  2.603091000e+01 -1.561760000e+00  2.253800000e+00 -3.779090000e+00 -3.829860000e+00  5.833434948e+00  6.530710000e-01
-3.577744000e+01  3.697419000e+01 -3.562844000e+00  3.065560000e+00 -1.867810000e+00 -8.305440000e-01  3.684586224e+00  2.440110000e-01
-3.320398000e+01  3.881212000e+01 -3.562553000e+00  3.231020000e+00 -2.295880000e+00 -8.056530000e-01  4.044704188e+00  2.887430000e-01
-3.062693000e+01  4.058387000e+01 -3.605855000e+00  3.265070000e+00 -2.641130000e+00 -7.948550000e-01  4.274113271e+00  3.165850000e-01
-2.804251000e+01  4.231651000e+01 -3.680398000e+00  3.181490000e+00 -2.869490000e+00 -8.017980000e-01  4.358753436e+00  3.246470000e-01
-2.543347000e+01  4.402323000e+01 -3.777288000e+00  3.005530000e+00 -2.960770000e+00 -8.279880000e-01  4.299410855e+00  3.128610000e-01
-2.277716000e+01  4.570259000e+01 -3.889352000e+00  2.770840000e+00 -2.910410000e+00 -8.720520000e-01  4.111996518e+00  2.834030000e-01
-2.005007000e+01  4.733556000e+01 -4.010941000e+00  2.511930000e+00 -2.729440000e+00 -9.309410000e-01  3.824432792e+00  2.402960000e-01
-1.723037000e+01  4.889342000e+01 -4.135801000e+00  2.261630000e+00 -2.440580000e+00 -9.998010000e-01  3.474334905e+00  1.892520000e-01
-1.430643000e+01  5.034225000e+01 -4.257760000e+00  2.044570000e+00 -2.074750000e+00 -1.073160000e+00  3.104275509e+00  1.382300000e-01
-1.127241000e+01  5.164187000e+01 -4.371220000e+00  1.877590000e+00 -1.665130000e+00 -1.145620000e+00  2.758703918e+00  9.925610000e-02
-8.135440000e+00  5.275866000e+01 -4.470570000e+00  1.767160000e+00 -1.244340000e+00 -1.211870000e+00  2.477875178e+00  8.524510000e-02
-4.908700000e+00  5.366128500e+01 -4.552000000e+00  1.712100000e+00 -8.397150000e-01 -1.267700000e+00  2.289862656e+00  9.819790000e-02
-1.611330000e+00  5.432740400e+01 -4.613750000e+00  1.704970000e+00 -4.725960000e-01 -1.309850000e+00  2.201357922e+00  1.252970000e-01
-3.620339000e+01  3.735695000e+01 -6.317839000e+00  2.495610000e+00 -1.340050000e+00 -8.510390000e-01  2.957713755e+00  1.528010000e-01
-3.365416000e+01  3.927664000e+01 -6.337174000e+00  2.652840000e+00 -1.666360000e+00 -8.207740000e-01  3.238515968e+00  1.786040000e-01
-3.107677000e+01  4.111666000e+01 -6.429583000e+00  2.701230000e+00 -1.923340000e+00 -8.072830000e-01  3.412856005e+00  1.954280000e-01
-2.846620000e+01  4.289529000e+01 -6.569464000e+00  2.654800000e+00 -2.086710000e+00 -8.143640000e-01  3.473544355e+00  1.993720000e-01
-2.580953000e+01  4.461961000e+01 -6.737634000e+00  2.536470000e+00 -2.143390000e+00 -8.428340000e-01  3.426101269e+00  1.897390000e-01
-2.309090000e+01  4.628422000e+01 -6.921068000e+00  2.373100000e+00 -2.091780000e+00 -8.911680000e-01  3.286537324e+00  1.684090000e-01
-2.029342000e+01  4.787407000e+01 -7.110203000e+00  2.192580000e+00 -1.940930000e+00 -9.557030000e-01  3.080257221e+00  1.395710000e-01
-1.740469000e+01  4.936408000e+01 -7.297070000e+00  2.019310000e+00 -1.708920000e+00 -1.031370000e+00  2.839321137e+00  1.101440000e-01
-1.441828000e+01  5.072571000e+01 -7.474250000e+00  1.872720000e+00 -1.419290000e+00 -1.112150000e+00  2.599681120e+00  8.942750000e-02
-1.133447000e+01  5.192877000e+01 -7.634810000e+00  1.764530000e+00 -1.098230000e+00 -1.191810000e+00  2.395847727e+00  8.572330000e-02
-8.162190000e+00  5.294538400e+01 -7.772640000e+00  1.699710000e+00 -7.706160000e-01 -1.264740000e+00  2.254424621e+00  1.002130000e-01
-4.915990000e+00  5.375006400e+01 -7.884100000e+00  1.676510000e+00 -4.579360000e-01 -1.326200000e+00  2.186137599e+00  1.245830000e-01
-1.613270000e+00  5.432674300e+01 -7.969350000e+00  1.688630000e+00 -1.762570000e-01 -1.373050000e+00  2.183530194e+00  1.495570000e-01
-3.646202000e+01  3.756617800e+01 -9.125963000e+00  1.995980000e+00 -8.888220000e-01 -9.328630000e-01  2.375747058e+00  1.108620000e-01
-3.394312000e+01  3.954550000e+01 -9.172167000e+00  2.144880000e+00 -1.127500000e+00 -9.038670000e-01  2.586260238e+00  1.140760000e-01
-3.137254000e+01  4.142868000e+01 -9.318347000e+00  2.205460000e+00 -1.309320000e+00 -8.934470000e-01  2.715993412e+00  1.173170000e-01
-2.874550000e+01  4.323109000e+01 -9.525540000e+00  2.191500000e+00 -1.417910000e+00 -9.040400000e-01  2.762323178e+00  1.162300000e-01
-2.605532000e+01  4.495530000e+01 -9.764651000e+00  2.122680000e+00 -1.445700000e+00 -9.357510000e-01  2.733395106e+00  1.096900000e-01
-2.329002000e+01  4.659488000e+01 -1.001635400e+01  2.020980000e+00 -1.393120000e+00 -9.864540000e-01  2.645417734e+00  9.959160000e-02
-2.044056000e+01  4.813483000e+01 -1.026769000e+01  1.907440000e+00 -1.268170000e+00 -1.052290000e+00  2.520693703e+00  9.013710000e-02
-1.750143000e+01  4.955517000e+01 -1.050869000e+01  1.800570000e+00 -1.084830000e+00 -1.127990000e+00  2.385638257e+00  8.668160000e-02
-1.447097000e+01  5.083382400e+01 -1.073109000e+01  1.714030000e+00 -8.611760000e-01 -1.207590000e+00  2.266670808e+00  9.357200000e-02
-1.135465000e+01  5.194527100e+01 -1.092790000e+01  1.656350000e+00 -6.167290000e-01 -1.285100000e+00  2.185253302e+00  1.103070000e-01
-8.163610000e+00  5.286773600e+01 -1.109289000e+01  1.630290000e+00 -3.702640000e-01 -1.354990000e+00  2.151961620e+00  1.316390000e-01
-4.912080000e+00  5.358342700e+01 -1.122334000e+01  1.634020000e+00 -1.375730000e-01 -1.412940000e+00  2.164566269e+00  1.524970000e-01
-1.616270000e+00  5.407763290e+01 -1.132175000e+01  1.662130000e+00  6.963290000e-02 -1.455950000e+00  2.210727319e+00  1.705630000e-01
-3.654786000e+01  3.759763900e+01 -1.195543000e+01  1.573140000e+00 -5.193610000e-01 -1.053430000e+00  1.963216767e+00  1.208160000e-01
-3.406628000e+01  3.961114100e+01 -1.203371000e+01  1.713720000e+00 -6.848590000e-01 -1.030710000e+00  2.113819101e+00  1.090370000e-01
-3.150880000e+01  4.151396800e+01 -1.223673000e+01  1.784200000e+00 -8.050320000e-01 -1.026730000e+00  2.210344013e+00  1.019440000e-01
-2.887660000e+01  4.331852700e+01 -1.251178000e+01  1.797400000e+00 -8.694730000e-01 -1.042780000e+00  2.252558587e+00  9.741290000e-02
-2.616593000e+01  4.502440800e+01 -1.281975000e+01  1.770070000e+00 -8.745920000e-01 -1.077750000e+00  2.249356360e+00  9.498370000e-02
-2.337059000e+01  4.662560200e+01 -1.313702000e+01  1.719410000e+00 -8.223980000e-01 -1.129020000e+00  2.215264178e+00  9.568780000e-02
-2.048868000e+01  4.810923100e+01 -1.344553000e+01  1.661320000e+00 -7.197690000e-01 -1.192530000e+00  2.167989704e+00  1.012290000e-01
-1.751814000e+01  4.945841800e+01 -1.373329000e+01  1.608860000e+00 -5.775820000e-01 -1.263290000e+00  2.125543011e+00  1.122870000e-01
-1.446340000e+01  5.065579800e+01 -1.399383000e+01  1.571600000e+00 -4.092020000e-01 -1.335830000e+00  2.102811125e+00  1.275510000e-01
-1.133312000e+01  5.168105400e+01 -1.421871000e+01  1.554880000e+00 -2.289460000e-01 -1.404710000e+00  2.107908506e+00  1.445190000e-01
-8.139710000e+00  5.251874800e+01 -1.440214000e+01  1.560090000e+00 -5.025200000e-02 -1.465140000e+00  2.140803889e+00  1.608430000e-01
-4.897100000e+00  5.315565300e+01 -1.454335000e+01  1.585200000e+00  1.156530000e-01 -1.513350000e+00  2.194644135e+00  1.748700000e-01
-1.620560000e+00  5.357873000e+01 -1.464801000e+01  1.625640000e+00  2.607300000e-01 -1.547010000e+00  2.259186907e+00  1.860910000e-01
-3.646154000e+01  3.745439900e+01 -1.478046000e+01  1.226460000e+00 -2.286010000e-01 -1.193460000e+00  1.726502048e+00  1.542120000e-01
-3.402244000e+01  3.947901800e+01 -1.489308000e+01  1.358560000e+00 -3.349820000e-01 -1.180080000e+00  1.830433561e+00  1.407090000e-01
-3.148755000e+01  4.137751900e+01 -1.515239000e+01  1.436450000e+00 -4.064810000e-01 -1.184390000e+00  1.905621966e+00  1.318120000e-01
-2.886046000e+01  4.316187800e+01 -1.549330000e+01  1.471540000e+00 -4.371220000e-01 -1.206300000e+00  1.952348664e+00  1.271930000e-01
-2.614242000e+01  4.483098900e+01 -1.586881000e+01  1.477580000e+00 -4.260110000e-01 -1.243810000e+00  1.977824902e+00  1.271290000e-01
-2.333516000e+01  4.638102200e+01 -1.624675000e+01  1.467840000e+00 -3.759780000e-01 -1.293750000e+00  1.992411299e+00  1.314000000e-01
-2.043828000e+01  4.780108700e+01 -1.660618000e+01  1.453720000e+00 -2.929130000e-01 -1.352180000e+00  2.006860886e+00  1.393380000e-01
-1.745678000e+01  4.907698100e+01 -1.693756000e+01  1.444220000e+00 -1.850190000e-01 -1.414560000e+00  2.030020550e+00  1.498130000e-01
-1.439759000e+01  5.019600630e+01 -1.722916000e+01  1.445410000e+00 -6.199370000e-02 -1.476160000e+00  2.066906295e+00  1.614310000e-01
-1.127158000e+01  5.114212360e+01 -1.747545000e+01  1.460420000e+00  6.612360000e-02 -1.532450000e+00  2.117923962e+00  1.727920000e-01
-8.091020000e+00  5.190304500e+01 -1.767251000e+01  1.489480000e+00  1.900450000e-01 -1.579510000e+00  2.179339261e+00  1.827590000e-01
-4.871350000e+00  5.246921500e+01 -1.781945000e+01  1.530550000e+00  3.022150000e-01 -1.614450000e+00  2.245075948e+00  1.905090000e-01
-1.625800000e+00  5.283240400e+01 -1.792459000e+01  1.579800000e+00  3.974040000e-01 -1.635590000e+00  2.308430772e+00  1.960360000e-01
-3.620815800e+01  3.714420480e+01 -1.757271000e+01  9.518420000e-01 -1.079520000e-02 -1.335710000e+00  1.640195395e+00  1.855960000e-01
-3.381867000e+01  3.915689790e+01 -1.772114000e+01  1.075330000e+00 -7.110210000e-02 -1.333140000e+00  1.714249800e+00  1.752910000e-01
-3.131285000e+01  4.102911400e+01 -1.803504000e+01  1.158150000e+00 -1.058860000e-01 -1.346040000e+00  1.778861138e+00  1.684480000e-01
-2.870207000e+01  4.277178800e+01 -1.844020000e+01  1.209930000e+00 -1.122120000e-01 -1.373200000e+00  1.833630382e+00  1.648270000e-01
-2.599134000e+01  4.438723600e+01 -1.887791000e+01  1.241660000e+00 -9.076400000e-02 -1.411910000e+00  1.882404714e+00  1.647840000e-01
-2.318784000e+01  4.587335290e+01 -1.931181000e+01  1.263160000e+00 -4.464710000e-02 -1.458810000e+00  1.930205472e+00  1.678350000e-01
-2.029465000e+01  4.722132990e+01 -1.971919000e+01  1.282350000e+00  2.132990000e-02 -1.510190000e+00  1.981300160e+00  1.731140000e-01
-1.732103000e+01  4.842210300e+01 -2.008715000e+01  1.304970000e+00  1.011030000e-01 -1.562150000e+00  2.038009112e+00  1.795970000e-01
-1.427439000e+01  4.946292100e+01 -2.040684000e+01  1.334610000e+00  1.879210000e-01 -1.610840000e+00  2.100310372e+00  1.862780000e-01
-1.116930000e+01  5.033498900e+01 -2.067172000e+01  1.372700000e+00  2.749890000e-01 -1.652720000e+00  2.165965752e+00  1.922730000e-01
-8.017860000e+00  5.102722600e+01 -2.087789000e+01  1.418740000e+00  3.562260000e-01 -1.684890000e+00  2.231271938e+00  1.969110000e-01
-4.834340000e+00  5.153380900e+01 -2.102730000e+01  1.470760000e+00  4.268090000e-01 -1.705300000e+00  2.292018541e+00  1.997260000e-01
-1.631340000e+00  5.184455400e+01 -2.113191000e+01  1.525560000e+00  4.835540000e-01 -1.712910000e+00  2.344188229e+00  2.009210000e-01
-3.579578200e+01  3.667644600e+01 -2.031262000e+01  7.422180000e-01  1.424460000e-01 -1.466620000e+00  1.649894738e+00  2.081270000e-01
-3.346308300e+01  3.865656600e+01 -2.049498000e+01  8.569170000e-01  1.165660000e-01 -1.474980000e+00  1.709812966e+00  2.011680000e-01
-3.099574000e+01  4.048099000e+01 -2.086165000e+01  9.422600000e-01  1.079900000e-01 -1.495650000e+00  1.771012329e+00  1.963960000e-01
-2.841011000e+01  4.216178200e+01 -2.132468000e+01  1.005890000e+00  1.177820000e-01 -1.526680000e+00  1.832058709e+00  1.934820000e-01
-2.571980000e+01  4.370855100e+01 -2.181902000e+01  1.056200000e+00  1.445510000e-01 -1.565020000e+00  1.893605300e+00  1.928360000e-01
-2.293379000e+01  4.511838500e+01 -2.230439000e+01  1.100210000e+00  1.853850000e-01 -1.607390000e+00  1.956663552e+00  1.940430000e-01
-2.006190000e+01  4.638753500e+01 -2.275550000e+01  1.143100000e+00  2.365350000e-01 -1.650500000e+00  2.021577767e+00  1.964200000e-01
-1.711274000e+01  4.750969900e+01 -2.315720000e+01  1.188260000e+00  2.936990000e-01 -1.691200000e+00  2.087672956e+00  1.992270000e-01
-1.409754000e+01  4.847435600e+01 -2.350053000e+01  1.237460000e+00  3.523560000e-01 -1.726530000e+00  2.153222665e+00  2.017990000e-01
-1.102898000e+01  4.927514600e+01 -2.378194000e+01  1.291020000e+00  4.081460000e-01 -1.753940000e+00  2.215766531e+00  2.035910000e-01
-7.920700000e+00  4.990531300e+01 -2.399645000e+01  1.348000000e+00  4.573130000e-01 -1.771450000e+00  2.272503968e+00  2.042240000e-01
-4.786020000e+00  5.035898100e+01 -2.414780000e+01  1.406580000e+00  4.969810000e-01 -1.777800000e+00  2.320782250e+00  2.034400000e-01
-1.636230000e+00  5.062636200e+01 -2.425048000e+01  1.464070000e+00  5.253620000e-01 -1.772480000e+00  2.358217875e+00  2.015400000e-01
-3.523520000e+01  3.606676700e+01 -2.298138000e+01  5.888000000e-01  2.407670000e-01 -1.576380000e+00  1.699890612e+00  2.215720000e-01
-3.296643700e+01  3.799332000e+01 -2.319579000e+01  6.945630000e-01  2.393200000e-01 -1.594790000e+00  1.755860748e+00  2.172580000e-01
-3.054384900e+01  3.974912400e+01 -2.360966000e+01  7.801510000e-01  2.481240000e-01 -1.621660000e+00  1.816585329e+00  2.140340000e-01
-2.799479000e+01  4.135233800e+01 -2.412578000e+01  8.512100000e-01  2.673380000e-01 -1.654780000e+00  1.879980031e+00  2.115560000e-01
-2.533720200e+01  4.281347900e+01 -2.467117000e+01  9.137980000e-01  2.954790000e-01 -1.691170000e+00  1.944836907e+00  2.102670000e-01
-2.258330000e+01  4.413716500e+01 -2.520186000e+01  9.727000000e-01  3.301650000e-01 -1.727860000e+00  2.010137905e+00  2.098710000e-01
-1.974695000e+01  4.532062200e+01 -2.569118000e+01  1.031050000e+00  3.686220000e-01 -1.762180000e+00  2.074662535e+00  2.098970000e-01
-1.683843000e+01  4.635996100e+01 -2.612270000e+01  1.090570000e+00  4.079610000e-01 -1.791700000e+00  2.136811642e+00  2.098650000e-01
-1.386916000e+01  4.724831000e+01 -2.648934000e+01  1.151840000e+00  4.453100000e-01 -1.814340000e+00  2.194735979e+00  2.093810000e-01
-1.085153000e+01  4.798104800e+01 -2.678542000e+01  1.214470000e+00  4.780480000e-01 -1.828420000e+00  2.246460987e+00  2.081410000e-01
-7.800260000e+00  4.855404100e+01 -2.700776000e+01  1.277340000e+00  5.040410000e-01 -1.832760000e+00  2.290123146e+00  2.059620000e-01
-4.725800000e+00  4.896072200e+01 -2.716269000e+01  1.338800000e+00  5.217220000e-01 -1.826690000e+00  2.324085980e+00  2.027230000e-01
-1.639320000e+00  4.919018200e+01 -2.726610000e+01  1.396580000e+00  5.301820000e-01 -1.810100000e+00  2.346910876e+00  1.987590000e-01
-3.453688100e+01  3.532821900e+01 -2.556090000e+01  4.821190000e-01  2.942190000e-01 -1.658900000e+00  1.752413410e+00  2.273560000e-01
-3.233829300e+01  3.718089600e+01 -2.580780000e+01  5.787070000e-01  3.088960000e-01 -1.685800000e+00  1.808933435e+00  2.249320000e-01
-2.997056200e+01  3.885100600e+01 -2.626395000e+01  6.624380000e-01  3.280060000e-01 -1.716950000e+00  1.869312532e+00  2.227600000e-01
-2.746700200e+01  4.036042500e+01 -2.682630000e+01  7.369980000e-01  3.514250000e-01 -1.750300000e+00  1.931376626e+00  2.205550000e-01
-2.485249100e+01  4.172511700e+01 -2.741729000e+01  8.065090000e-01  3.781170000e-01 -1.783290000e+00  1.993377149e+00  2.187420000e-01
-2.214406800e+01  4.295126400e+01 -2.798756000e+01  8.739320000e-01  4.062640000e-01 -1.813560000e+00  2.053730131e+00  2.171290000e-01
-1.935703500e+01  4.404204300e+01 -2.851008000e+01  9.409650000e-01  4.340430000e-01 -1.839080000e+00  2.110929583e+00  2.154180000e-01
-1.650279000e+01  4.499460000e+01 -2.896918000e+01  1.008210000e+00  4.596000000e-01 -1.858180000e+00  2.163458453e+00  2.133470000e-01
-1.359351000e+01  4.580626300e+01 -2.935552000e+01  1.075490000e+00  4.812630000e-01 -1.869520000e+00  2.209841136e+00  2.107310000e-01
-1.064093000e+01  4.647260000e+01 -2.966614000e+01  1.142070000e+00  4.976000000e-01 -1.872140000e+00  2.248741387e+00  2.074380000e-01
-7.657120000e+00  4.698955200e+01 -2.989846000e+01  1.206780000e+00  5.075520000e-01 -1.865460000e+00  2.279005926e+00  2.034150000e-01
-4.653520000e+00  4.735237900e+01 -3.005728000e+01  1.268180000e+00  5.103790000e-01 -1.849280000e+00  2.299696448e+00  1.986240000e-01
-1.639690000e+00  4.754966200e+01 -3.016268000e+01  1.324310000e+00  5.056620000e-01 -1.823680000e+00  2.309826785e+00  1.933980000e-01
-3.371192300e+01  3.448754300e+01 -2.802736000e+01  4.130770000e-01  3.125430000e-01 -1.711360000e+00  1.788034895e+00  2.273470000e-01
-3.160301800e+01  3.623848600e+01 -2.830554000e+01  4.999820000e-01  3.364860000e-01 -1.744540000e+00  1.845704375e+00  2.261670000e-01
-2.930538600e+01  3.779932500e+01 -2.879982000e+01  5.796140000e-01  3.603250000e-01 -1.777820000e+00  1.904318893e+00  2.246220000e-01
-2.686072800e+01  3.919827800e+01 -2.940365000e+01  6.542720000e-01  3.842780000e-01 -1.809650000e+00  1.962288091e+00  2.225400000e-01
-2.430077700e+01  4.045358700e+01 -3.003318000e+01  7.262230000e-01  4.075870000e-01 -1.838180000e+00  2.018026938e+00  2.203250000e-01
-2.164889900e+01  4.157532300e+01 -3.063970000e+01  7.971010000e-01  4.293230000e-01 -1.861700000e+00  2.070172730e+00  2.178200000e-01
-1.892148600e+01  4.256827300e+01 -3.119294000e+01  8.675140000e-01  4.482730000e-01 -1.878940000e+00  2.117532703e+00  2.148800000e-01
-1.613164900e+01  4.343241300e+01 -3.167685000e+01  9.373510000e-01  4.634130000e-01 -1.888850000e+00  2.158965685e+00  2.114230000e-01
-1.329197000e+01  4.416487500e+01 -3.208371000e+01  1.006030000e+00  4.738750000e-01 -1.890710000e+00  2.193499072e+00  2.074140000e-01
-1.041234000e+01  4.476501500e+01 -3.241008000e+01  1.072660000e+00  4.790150000e-01 -1.884080000e+00  2.220318061e+00  2.028370000e-01
-7.505240000e+00  4.522944100e+01 -3.265285000e+01  1.136160000e+00  4.784410000e-01 -1.868850000e+00  2.238831315e+00  1.977150000e-01
-4.579100000e+00  4.555188200e+01 -3.282006000e+01  1.195300000e+00  4.718820000e-01 -1.845060000e+00  2.248479734e+00  1.920590000e-01
-1.643440000e+00  4.571714800e+01 -3.293088000e+01  1.248360000e+00  4.591480000e-01 -1.812880000e+00  2.248500271e+00  1.861700000e-01
-3.281390400e+01  3.358442900e+01 -3.030194000e+01  3.730960000e-01  3.054290000e-01 -1.733940000e+00  1.799732042e+00  2.236650000e-01
-3.084971200e+01  3.517172200e+01 -3.060882000e+01  4.482880000e-01  3.327220000e-01 -1.769820000e+00  1.855782555e+00  2.231720000e-01
-2.865767600e+01  3.658320800e+01 -3.114994000e+01  5.213240000e-01  3.572080000e-01 -1.802940000e+00  1.910489181e+00  2.218400000e-01
-2.629009900e+01  3.785080800e+01 -3.180105000e+01  5.929010000e-01  3.788080000e-01 -1.832050000e+00  1.962507146e+00  2.196950000e-01
-2.379409600e+01  3.898886900e+01 -3.247462000e+01  6.639040000e-01  3.978690000e-01 -1.855620000e+00  2.010570528e+00  2.170610000e-01
-2.120245800e+01  4.000359200e+01 -3.311980000e+01  7.345420000e-01  4.135920000e-01 -1.872800000e+00  2.053774606e+00  2.138340000e-01
-1.853642900e+01  4.089942200e+01 -3.370781000e+01  8.045710000e-01  4.254220000e-01 -1.882810000e+00  2.091241705e+00  2.100280000e-01
-1.581055500e+01  4.167687000e+01 -3.422114000e+01  8.734450000e-01  4.328700000e-01 -1.885140000e+00  2.122271289e+00  2.056780000e-01
-1.303661700e+01  4.233460700e+01 -3.465353000e+01  9.403830000e-01  4.356070000e-01 -1.879530000e+00  2.146323989e+00  2.008350000e-01
-1.022649000e+01  4.287246400e+01 -3.499892000e+01  1.004510000e+00  4.334640000e-01 -1.865920000e+00  2.163004583e+00  1.955470000e-01
-7.389040000e+00  4.328742300e+01 -3.525850000e+01  1.064860000e+00  4.264230000e-01 -1.844500000e+00  2.172082790e+00  1.898710000e-01
-4.533220000e+00  4.357144300e+01 -3.543843000e+01  1.120380000e+00  4.144430000e-01 -1.815430000e+00  2.173200504e+00  1.838360000e-01
-1.664430000e+00  4.370835800e+01 -3.555877000e+01  1.169570000e+00  3.973580000e-01 -1.778770000e+00  2.165596933e+00  1.776990000e-01
-3.198154000e+01  3.269028900e+01 -3.221746000e+01  3.524600000e-01  2.842890000e-01 -1.731460000e+00  1.789693275e+00  2.185440000e-01
-3.027065800e+01  3.397593000e+01 -3.258712000e+01  4.123420000e-01  3.089300000e-01 -1.764120000e+00  1.837820188e+00  2.180850000e-01
-2.822535500e+01  3.517015300e+01 -3.321673000e+01  4.756450000e-01  3.291530000e-01 -1.794730000e+00  1.885639318e+00  2.164890000e-01
-2.594083000e+01  3.628481700e+01 -3.394597000e+01  5.421700000e-01  3.468170000e-01 -1.819970000e+00  1.930419939e+00  2.139870000e-01
-2.349981400e+01  3.730402700e+01 -3.468586000e+01  6.101860000e-01  3.610270000e-01 -1.838860000e+00  1.970805305e+00  2.107850000e-01
-2.095462800e+01  3.821736100e+01 -3.538651000e+01  6.783720000e-01  3.713610000e-01 -1.850510000e+00  2.005613328e+00  2.069480000e-01
-1.833114000e+01  3.902556100e+01 -3.602161000e+01  7.458600000e-01  3.775610000e-01 -1.854610000e+00  2.034315045e+00  2.025480000e-01
-1.564919400e+01  3.972648100e+01 -3.657702000e+01  8.118060000e-01  3.794810000e-01 -1.851020000e+00  2.056528592e+00  1.976650000e-01
-1.292061500e+01  4.031909800e+01 -3.704380000e+01  8.753850000e-01  3.770980000e-01 -1.839800000e+00  2.072043880e+00  1.923780000e-01
-1.015422800e+01  4.080248800e+01 -3.742016000e+01  9.357720000e-01  3.704880000e-01 -1.821160000e+00  2.080758117e+00  1.867570000e-01
-7.359863000e+00  4.117380400e+01 -3.770443000e+01  9.921370000e-01  3.598040000e-01 -1.795430000e+00  2.082633820e+00  1.808650000e-01
-4.544730000e+00  4.142505500e+01 -3.790381000e+01  1.043570000e+00  3.450550000e-01 -1.762810000e+00  2.077402319e+00  1.747330000e-01
-1.713410000e+00  4.153503200e+01 -3.804118000e+01  1.088690000e+00  3.260320000e-01 -1.723180000e+00  2.064192843e+00  1.685710000e-01
-3.141197500e+01  3.200023300e+01 -3.348860000e+01  3.430250000e-01  2.642330000e-01 -1.716600000e+00  1.770367416e+00  2.141080000e-01
-3.009809000e+01  3.263654000e+01 -3.412032000e+01  3.789100000e-01  2.735400000e-01 -1.735320000e+00  1.797145632e+00  2.122830000e-01
-2.818416500e+01  3.352703700e+01 -3.494247000e+01  4.318350000e-01  2.860370000e-01 -1.758470000e+00  1.833170852e+00  2.099130000e-01
-2.594483000e+01  3.447909400e+01 -3.580401000e+01  4.931700000e-01  2.980940000e-01 -1.779010000e+00  1.870014241e+00  2.067380000e-01
-2.352446400e+01  3.538732200e+01 -3.664219000e+01  5.575360000e-01  3.073220000e-01 -1.793190000e+00  1.902846179e+00  2.029270000e-01
-2.099150600e+01  3.621399500e+01 -3.742201000e+01  6.224940000e-01  3.129950000e-01 -1.800010000e+00  1.930155603e+00  1.985780000e-01
-1.838035200e+01  3.694884100e+01 -3.812326000e+01  6.866480000e-01  3.148410000e-01 -1.799260000e+00  1.951396136e+00  1.937570000e-01
-1.570694900e+01  3.758686700e+01 -3.873504000e+01  7.490510000e-01  3.128670000e-01 -1.791040000e+00  1.966414870e+00  1.885480000e-01
-1.298513600e+01  3.812716900e+01 -3.925062000e+01  8.088640000e-01  3.071690000e-01 -1.775620000e+00  1.975206356e+00  1.830320000e-01
-1.022467100e+01  3.856692400e+01 -3.966834000e+01  8.653290000e-01  2.979240000e-01 -1.753340000e+00  1.977815498e+00  1.772730000e-01
-7.433810000e+00  3.890231600e+01 -3.998660000e+01  9.176900000e-01  2.853160000e-01 -1.724600000e+00  1.974286027e+00  1.713320000e-01
-4.619897000e+00  3.912235800e+01 -4.021457000e+01  9.651030000e-01  2.693580000e-01 -1.689570000e+00  1.964338137e+00  1.652380000e-01
-1.791420000e+00  3.920683700e+01 -4.037206000e+01  1.006280000e+00  2.498370000e-01 -1.648060000e+00  1.947079795e+00  1.591650000e-01
-1.888175000e+00  3.672822600e+01 -4.255211000e+01  9.230250000e-01  1.722260000e-01 -1.555110000e+00  1.816591329e+00  1.498010000e-01
-2.025773000e+00  3.413109910e+01 -4.455774000e+01  8.399270000e-01  9.709910000e-02 -1.447740000e+00  1.676560977e+00  1.408530000e-01
-2.181206000e+00  3.142464240e+01 -4.638962000e+01  7.574940000e-01  2.664240000e-02 -1.327620000e+00  1.528751727e+00  1.325750000e-01
-2.341802000e+00  2.861694360e+01 -4.804575000e+01  6.761980000e-01 -3.705640000e-02 -1.196750000e+00  1.375073625e+00  1.252470000e-01
-2.502011000e+00  2.572300200e+01 -4.952341000e+01  5.963890000e-01 -9.199800000e-02 -1.057410000e+00  1.217480751e+00  1.192590000e-01
-2.660764000e+00  2.275779300e+01 -5.082031300e+01  5.183360000e-01 -1.362070000e-01 -9.123130000e-01  1.058082967e+00  1.151210000e-01
-2.821147000e+00  1.973922700e+01 -5.193167800e+01  4.422530000e-01 -1.677730000e-01 -7.646780000e-01  8.991484523e-01  1.134490000e-01
-2.992861000e+00  1.668822300e+01 -5.285853500e+01  3.683390000e-01 -1.847770000e-01 -6.185350000e-01  7.432373140e-01  1.148690000e-01
-3.193972000e+00  1.363609700e+01 -5.359873700e+01  2.968280000e-01 -1.859030000e-01 -4.787370000e-01  5.931744281e-01  1.200100000e-01
-3.449538000e+00  1.060726700e+01 -5.415921800e+01  2.279620000e-01 -1.697330000e-01 -3.512180000e-01  4.518075345e-01  1.286000000e-01
-3.796203000e+00  7.542985000e+00 -5.455311100e+01  1.593970000e-01 -1.375150000e-01 -2.361110000e-01  3.163323935e-01  1.450670000e-01
-4.144031700e+00  4.150801800e+00 -5.481686600e+01  8.536830000e-02 -7.429820000e-02 -1.428660000e-01  1.822598780e-01  1.471830000e-01
-4.744389000e+00  3.667029800e+01 -4.237165000e+01  8.858110000e-01  1.912980000e-01 -1.597650000e+00  1.836774775e+00  1.557520000e-01
-4.938303000e+00  3.409807600e+01 -4.435248000e+01  8.064970000e-01  1.150760000e-01 -1.490480000e+00  1.698590747e+00  1.467080000e-01
-5.166250000e+00  3.141511000e+01 -4.615879000e+01  7.279500000e-01  4.311000000e-02 -1.369790000e+00  1.551803570e+00  1.383410000e-01
-5.406242000e+00  2.863362890e+01 -4.779059000e+01  6.507580000e-01 -2.237110000e-02 -1.237590000e+00  1.398433212e+00  1.309150000e-01
-5.648310000e+00  2.576675890e+01 -4.924428000e+01  5.752900000e-01 -7.924110000e-02 -1.096280000e+00  1.240591623e+00  1.248040000e-01
-5.890950000e+00  2.282954800e+01 -5.051870900e+01  5.017500000e-01 -1.254520000e-01 -9.487090000e-01  1.080527664e+00  1.204860000e-01
-6.139776000e+00  1.984094400e+01 -5.161021200e+01  4.302240000e-01 -1.590560000e-01 -7.982120000e-01  9.206160428e-01  1.185320000e-01
-6.409833000e+00  1.681776600e+01 -5.251673900e+01  3.606670000e-01 -1.782340000e-01 -6.487390000e-01  7.633546579e-01  1.194970000e-01
-6.724392000e+00  1.378140200e+01 -5.323793900e+01  2.930080000e-01 -1.815980000e-01 -5.049390000e-01  6.113876965e-01  1.239960000e-01
-7.107338000e+00  1.073034700e+01 -5.377912600e+01  2.263620000e-01 -1.676530000e-01 -3.711260000e-01  4.659203702e-01  1.316470000e-01
-7.533226000e+00  7.532310000e+00 -5.416311300e+01  1.567740000e-01 -1.356900000e-01 -2.461130000e-01  3.218096828e-01  1.473850000e-01
-7.695258000e+00  3.916754600e+00 -5.444230300e+01  7.784200000e-02 -7.044540000e-02 -1.403030000e-01  1.752337386e-01  1.492470000e-01
-7.592131000e+00  3.648048600e+01 -4.210831000e+01  8.424690000e-01  2.074860000e-01 -1.634310000e+00  1.850344193e+00  1.617670000e-01
-7.843856000e+00  3.393161400e+01 -4.405267000e+01  7.670440000e-01  1.306140000e-01 -1.527670000e+00  1.714407228e+00  1.526480000e-01
-8.142929000e+00  3.126842480e+01 -4.582351000e+01  6.924710000e-01  5.742480000e-02 -1.406510000e+00  1.568784266e+00  1.442060000e-01
-8.459029000e+00  2.850336538e+01 -4.741985000e+01  6.194710000e-01 -9.634620000e-03 -1.272850000e+00  1.415621513e+00  1.366950000e-01
-8.777487000e+00  2.565172860e+01 -4.884220000e+01  5.484130000e-01 -6.827140000e-02 -1.129200000e+00  1.257183536e+00  1.304730000e-01
-9.094591000e+00  2.272669400e+01 -5.008546900e+01  4.794090000e-01 -1.163060000e-01 -9.784690000e-01  1.095792708e+00  1.259980000e-01
-9.414645000e+00  1.974330300e+01 -5.114904200e+01  4.123550000e-01 -1.516970000e-01 -8.240420000e-01  9.338596488e-01  1.238050000e-01
-9.750054000e+00  1.671547200e+01 -5.202978600e+01  3.469460000e-01 -1.725280000e-01 -6.697860000e-01  7.737898445e-01  1.244360000e-01
-1.011738300e+01  1.365283000e+01 -5.272701500e+01  2.826170000e-01 -1.771700000e-01 -5.200150000e-01  6.178002734e-01  1.285130000e-01
-1.052224400e+01  1.053730400e+01 -5.324777400e+01  2.177560000e-01 -1.636960000e-01 -3.787740000e-01  4.665659643e-01  1.358240000e-01
-1.089139300e+01  7.250743000e+00 -5.361882800e+01  1.486070000e-01 -1.306570000e-01 -2.458280000e-01  3.155736011e-01  1.508320000e-01
-1.089775020e+01  3.660163400e+00 -5.390305900e+01  7.024980000e-02 -6.503660000e-02 -1.370590000e-01  1.671824250e-01  1.521120000e-01
-1.041684900e+01  3.617688900e+01 -4.174618000e+01  7.941510000e-01  2.208890000e-01 -1.665180000e+00  1.858034497e+00  1.677010000e-01
-1.072430000e+01  3.365284700e+01 -4.364353000e+01  7.227000000e-01  1.438470000e-01 -1.559530000e+00  1.724853927e+00  1.585640000e-01
-1.109074500e+01  3.100982010e+01 -4.536826000e+01  6.522550000e-01  6.982010000e-02 -1.438260000e+00  1.580791972e+00  1.500870000e-01
-1.147633300e+01  2.826249109e+01 -4.692041000e+01  5.836670000e-01  1.491090000e-03 -1.303410000e+00  1.428127102e+00  1.425170000e-01
-1.186169700e+01  2.542434670e+01 -4.829956000e+01  5.173030000e-01 -5.865330000e-02 -1.157560000e+00  1.269246925e+00  1.362040000e-01
-1.223984000e+01  2.250873200e+01 -4.950471000e+01  4.531600000e-01 -1.082680000e-01 -1.003710000e+00  1.106575668e+00  1.315930000e-01
-1.261104700e+01  1.952883700e+01 -5.053327700e+01  3.909530000e-01 -1.451630000e-01 -8.452770000e-01  9.425549064e-01  1.292070000e-01
-1.298192100e+01  1.649474400e+01 -5.138314200e+01  3.300790000e-01 -1.672560000e-01 -6.861420000e-01  7.795624157e-01  1.296000000e-01
-1.336142800e+01  1.341232400e+01 -5.205366500e+01  2.695720000e-01 -1.726760000e-01 -5.306650000e-01  6.197510842e-01  1.334090000e-01
-1.374453900e+01  1.026275500e+01 -5.255313700e+01  2.074610000e-01 -1.592450000e-01 -3.831370000e-01  4.638889924e-01  1.405350000e-01
-1.404256700e+01  6.967312000e+00 -5.290962500e+01  1.404330000e-01 -1.254880000e-01 -2.456250000e-01  3.095162455e-01  1.547110000e-01
-1.398726520e+01  3.480572500e+00 -5.319182200e+01  6.473480000e-02 -6.142750000e-02 -1.358220000e-01  1.625163000e-01  1.556010000e-01
-1.320933200e+01  3.577349400e+01 -4.127710000e+01  7.416680000e-01  2.314940000e-01 -1.690100000e+00  1.860134109e+00  1.735270000e-01
-1.356775600e+01  3.327779800e+01 -4.311896000e+01  6.742440000e-01  1.547980000e-01 -1.585960000e+00  1.730270648e+00  1.644340000e-01
-1.399492400e+01  3.065839320e+01 -4.478613000e+01  6.080760000e-01  8.039320000e-02 -1.465130000e+00  1.588340456e+00  1.559740000e-01
-1.444286200e+01  2.793119240e+01 -4.628365000e+01  5.441380000e-01  1.119240000e-02 -1.329650000e+00  1.436725637e+00  1.483840000e-01
-1.488620900e+01  2.511189080e+01 -4.761114000e+01  4.827910000e-01 -5.010920000e-02 -1.182140000e+00  1.277909645e+00  1.420090000e-01
-1.531307800e+01  2.221201000e+01 -4.876970000e+01  4.239220000e-01 -1.009900000e-01 -1.025700000e+00  1.114436778e+00  1.372940000e-01
-1.572196400e+01  1.924391700e+01 -4.975582300e+01  3.670360000e-01 -1.390830000e-01 -8.638230000e-01  9.488148826e-01  1.347660000e-01
-1.611374200e+01  1.621684900e+01 -5.056952200e+01  3.112580000e-01 -1.621510000e-01 -7.005220000e-01  7.835212581e-01  1.349880000e-01
-1.649172800e+01  1.313486100e+01 -5.121130000e+01  2.552720000e-01 -1.681390000e-01 -5.403000000e-01  6.207725890e-01  1.385940000e-01
-1.684415400e+01  9.987173000e+00 -5.168806400e+01  1.968460000e-01 -1.548270000e-01 -3.880640000e-01  4.618586534e-01  1.454930000e-01
-1.709277500e+01  6.728214000e+00 -5.202946100e+01  1.332250000e-01 -1.210860000e-01 -2.474610000e-01  3.060190624e-01  1.588680000e-01
-1.703262430e+01  3.353190900e+00 -5.230127700e+01  6.037570000e-02 -5.880910000e-02 -1.362770000e-01  1.602346908e-01  1.595660000e-01
-1.595825900e+01  3.527615600e+01 -4.070070000e+01  6.857410000e-01  2.391560000e-01 -1.708700000e+00  1.856634590e+00  1.791980000e-01
-1.636466100e+01  3.281437500e+01 -4.247667000e+01  6.223390000e-01  1.633750000e-01 -1.606670000e+00  1.730718264e+00  1.702280000e-01
-1.684647400e+01  3.022410900e+01 -4.407694000e+01  5.605260000e-01  8.910900000e-02 -1.486940000e+00  1.591577951e+00  1.618480000e-01
-1.734959000e+01  2.752451050e+01 -4.550854000e+01  5.014100000e-01  1.951050000e-02 -1.351540000e+00  1.441684091e+00  1.542880000e-01
-1.784265600e+01  2.472946650e+01 -4.677617000e+01  4.453440000e-01 -4.253350000e-02 -1.203170000e+00  1.283650430e+00  1.478940000e-01
-1.831190500e+01  2.185468940e+01 -4.787896000e+01  3.920950000e-01 -9.431060000e-02 -1.044960000e+00  1.120077845e+00  1.431180000e-01
-1.875003900e+01  1.890969800e+01 -4.881654000e+01  3.409610000e-01 -1.333020000e-01 -8.805400000e-01  9.536113036e-01  1.404940000e-01
-1.915621000e+01  1.590488000e+01 -4.959004300e+01  2.907900000e-01 -1.571200000e-01 -7.140430000e-01  7.868309376e-01  1.405930000e-01
-1.953105400e+01  1.284538100e+01 -5.019820800e+01  2.399460000e-01 -1.636190000e-01 -5.502080000e-01  6.221527974e-01  1.440090000e-01
-1.986096500e+01  9.725960000e+00 -5.064940700e+01  1.860350000e-01 -1.506400000e-01 -3.944070000e-01  4.613657036e-01  1.506470000e-01
-2.008256500e+01  6.524912000e+00 -5.097029200e+01  1.264350000e-01 -1.172880000e-01 -2.512920000e-01  3.047785318e-01  1.633710000e-01
-2.004050920e+01  3.252884600e+00 -5.122790300e+01  5.649080000e-02 -5.681540000e-02 -1.379030000e-01  1.594880484e-01  1.640640000e-01
-1.865692700e+01  3.468771800e+01 -4.001861000e+01  6.270730000e-01  2.437180000e-01 -1.720610000e+00  1.847462525e+00  1.846600000e-01
-1.910439900e+01  3.226743700e+01 -4.171829000e+01  5.676010000e-01  1.694370000e-01 -1.621290000e+00  1.726111542e+00  1.759050000e-01
-1.963587700e+01  2.971287610e+01 -4.324035000e+01  5.101230000e-01  9.587610000e-02 -1.503350000e+00  1.590433565e+00  1.676840000e-01
-2.018811600e+01  2.704739070e+01 -4.459685000e+01  4.558840000e-01  2.639070000e-02 -1.368850000e+00  1.443009706e+00  1.602150000e-01
-2.072576000e+01  2.428707690e+01 -4.579450000e+01  4.052400000e-01 -3.592310000e-02 -1.220500000e+00  1.286518627e+00  1.538490000e-01
-2.123115700e+01  2.144579090e+01 -4.683451000e+01  3.578430000e-01 -8.820910000e-02 -1.061510000e+00  1.123670743e+00  1.490520000e-01
-2.169522600e+01  1.853621400e+01 -4.771756400e+01  3.127740000e-01 -1.277860000e-01 -8.955640000e-01  9.571790402e-01  1.463730000e-01
-2.211538600e+01  1.556782800e+01 -4.844293900e+01  2.686140000e-01 -1.521720000e-01 -7.269390000e-01  7.897785185e-01  1.463810000e-01
-2.248956500e+01  1.254684300e+01 -4.901353500e+01  2.234350000e-01 -1.591570000e-01 -5.605350000e-01  6.240622053e-01  1.496280000e-01
-2.280739100e+01  9.474346000e+00 -4.943504300e+01  1.746090000e-01 -1.466540000e-01 -4.020430000e-01  4.622058767e-01  1.560410000e-01
-2.301651700e+01  6.341744000e+00 -4.973461500e+01  1.194830000e-01 -1.139560000e-01 -2.566150000e-01  3.051449089e-01  1.682790000e-01
-2.300040660e+01  3.164734400e+00 -4.997234500e+01  5.259340000e-02 -5.516560000e-02 -1.403450000e-01  1.597060680e-01  1.691250000e-01
-2.129359200e+01  3.401202900e+01 -3.923547000e+01  5.664080000e-01  2.450290000e-01 -1.725470000e+00  1.832513016e+00  1.898480000e-01
-2.177932700e+01  3.163985600e+01 -4.084640000e+01  5.106730000e-01  1.728560000e-01 -1.629400000e+00  1.716278086e+00  1.814210000e-01
-2.235562200e+01  2.912956400e+01 -4.227993000e+01  4.573780000e-01  1.005640000e-01 -1.513930000e+00  1.584705587e+00  1.734490000e-01
-2.295206600e+01  2.650475740e+01 -4.355313000e+01  4.079340000e-01  3.175740000e-02 -1.381130000e+00  1.440464771e+00  1.661340000e-01
-2.353027900e+01  2.378665240e+01 -4.467175000e+01  3.627210000e-01 -3.034760000e-02 -1.233750000e+00  1.286322884e+00  1.598400000e-01
-2.406773600e+01  2.098928450e+01 -4.564099000e+01  3.212640000e-01 -8.271550000e-02 -1.074990000e+00  1.125013738e+00  1.550580000e-01
-2.455554800e+01  1.812542700e+01 -4.646162000e+01  2.824520000e-01 -1.225730000e-01 -9.086200000e-01  9.593714489e-01  1.523610000e-01
-2.498941300e+01  1.520566100e+01 -4.713494200e+01  2.445870000e-01 -1.473390000e-01 -7.389420000e-01  7.921911770e-01  1.523160000e-01
-2.536654900e+01  1.223623600e+01 -4.766096800e+01  2.054510000e-01 -1.547640000e-01 -5.709680000e-01  6.262319587e-01  1.554440000e-01
-2.567984100e+01  9.224065000e+00 -4.804951000e+01  1.621590000e-01 -1.428350000e-01 -4.105100000e-01  4.639136111e-01  1.617050000e-01
-2.588611300e+01  6.166577000e+00 -4.832192600e+01  1.118870000e-01 -1.109230000e-01 -2.629260000e-01  3.065170373e-01  1.736130000e-01
-2.589762150e+01  3.080671200e+00 -4.853734000e+01  4.837850000e-02 -5.372880000e-02 -1.433400000e-01  1.605416420e-01  1.747650000e-01
-2.385439500e+01  3.325204500e+01 -3.835699000e+01  5.046050000e-01  2.430450000e-01 -1.722990000e+00  1.811737182e+00  1.946950000e-01
-2.437975900e+01  3.093551500e+01 -3.986762000e+01  4.522410000e-01  1.735150000e-01 -1.630620000e+00  1.701044080e+00  1.867410000e-01
-2.499816800e+01  2.847511400e+01 -4.120216000e+01  4.028320000e-01  1.031140000e-01 -1.518160000e+00  1.574076206e+00  1.791270000e-01
-2.563502900e+01  2.590051250e+01 -4.237983000e+01  3.579710000e-01  3.551250000e-02 -1.387830000e+00  1.433693302e+00  1.720170000e-01
-2.624795700e+01  2.323215440e+01 -4.341230000e+01  3.180430000e-01 -2.584560000e-02 -1.242300000e+00  1.282625680e+00  1.658180000e-01
-2.681549400e+01  2.048811470e+01 -4.430286000e+01  2.825060000e-01 -7.788530000e-02 -1.084860000e+00  1.123742399e+00  1.610860000e-01
-2.732499900e+01  1.767929500e+01 -4.505415700e+01  2.500010000e-01 -1.177050000e-01 -9.191570000e-01  9.597940184e-01  1.584100000e-01
-2.777241000e+01  1.481734500e+01 -4.566853000e+01  2.185900000e-01 -1.426550000e-01 -7.495300000e-01  7.936795689e-01  1.583540000e-01
-2.815624200e+01  1.191155000e+01 -4.614696700e+01  1.857580000e-01 -1.504500000e-01 -5.809670000e-01  6.282228045e-01  1.614270000e-01
-2.846865200e+01  8.968768000e+00 -4.649626100e+01  1.483480000e-01 -1.391320000e-01 -4.192610000e-01  4.659877988e-01  1.676300000e-01
-2.867869100e+01  5.991713000e+00 -4.673977100e+01  1.033090000e-01 -1.080870000e-01 -2.697710000e-01  3.084346632e-01  1.793540000e-01
-2.871636060e+01  2.996176700e+00 -4.692867700e+01  4.363940000e-02 -5.242330000e-02 -1.466770000e-01  1.617613735e-01  1.809760000e-01
-2.631300400e+01  3.242200700e+01 -3.739632000e+01  4.429960000e-01  2.380070000e-01 -1.713320000e+00  1.785597438e+00  1.991800000e-01
-2.688245400e+01  3.017389600e+01 -3.878609000e+01  3.935460000e-01  1.718960000e-01 -1.625090000e+00  1.680876021e+00  1.919230000e-01
-2.754348000e+01  2.777393100e+01 -4.000639000e+01  3.475200000e-01  1.039310000e-01 -1.516390000e+00  1.559169790e+00  1.847570000e-01
-2.822021500e+01  2.525516070e+01 -4.107920000e+01  3.067850000e-01  3.816070000e-02 -1.389200000e+00  1.423183022e+00  1.778580000e-01
-2.886713300e+01  2.264394530e+01 -4.201652000e+01  2.718670000e-01 -2.205470000e-02 -1.246520000e+00  1.276013396e+00  1.717800000e-01
-2.946199900e+01  1.995754450e+01 -4.282136000e+01  2.420010000e-01 -7.345550000e-02 -1.091360000e+00  1.120279806e+00  1.671190000e-01
-2.999331100e+01  1.721096400e+01 -4.349838400e+01  2.156890000e-01 -1.130360000e-01 -9.273840000e-01  9.588221761e-01  1.644790000e-01
-3.045627600e+01  1.441493900e+01 -4.404779600e+01  1.907240000e-01 -1.380610000e-01 -7.587960000e-01  7.944859052e-01  1.644390000e-01
-3.084867300e+01  1.157879300e+01 -4.447351000e+01  1.643270000e-01 -1.462070000e-01 -5.905100000e-01  6.301443564e-01  1.675090000e-01
-3.116394300e+01  8.712151000e+00 -4.478117500e+01  1.330570000e-01 -1.355490000e-01 -4.281750000e-01  4.684138419e-01  1.737480000e-01
-3.138038110e+01  5.818763000e+00 -4.499102800e+01  9.361890000e-02 -1.054370000e-01 -2.770280000e-01  3.108471846e-01  1.854280000e-01
-3.144368500e+01  2.913329900e+00 -4.515134500e+01  3.831500000e-02 -5.127010000e-02 -1.503450000e-01  1.634022075e-01  1.877110000e-01
-2.859607000e+01  3.159780900e+01 -3.635858000e+01  3.849300000e-01  2.318090000e-01 -1.698580000e+00  1.757008974e+00  2.033880000e-01
-2.922543700e+01  2.944604000e+01 -3.758809000e+01  3.375630000e-01  1.700400000e-01 -1.616090000e+00  1.659701560e+00  1.970740000e-01
-2.994321700e+01  2.711750500e+01 -3.867493000e+01  2.937830000e-01  1.055050000e-01 -1.511930000e+00  1.543817373e+00  1.903860000e-01
-3.066867600e+01  2.465879770e+01 -3.963411000e+01  2.563240000e-01  4.179770000e-02 -1.389110000e+00  1.413179264e+00  1.837740000e-01
-3.135646500e+01  2.210171540e+01 -4.047208000e+01  2.255350000e-01 -1.728460000e-02 -1.250080000e+00  1.270379786e+00  1.778500000e-01
-3.198428500e+01  1.947077810e+01 -4.118997000e+01  2.007150000e-01 -6.822190000e-02 -1.097970000e+00  1.118248121e+00  1.732340000e-01
-3.254086000e+01  1.678318800e+01 -4.179029000e+01  1.801400000e-01 -1.078120000e-01 -9.362900000e-01  9.595378112e-01  1.705840000e-01
-3.302360400e+01  1.404880700e+01 -4.227419000e+01  1.613960000e-01 -1.331930000e-01 -7.691900000e-01  7.971463480e-01  1.705290000e-01
-3.342858800e+01  1.127903000e+01 -4.264444000e+01  1.414120000e-01 -1.419700000e-01 -6.014400000e-01  6.339423540e-01  1.736070000e-01
-3.375253300e+01  8.483798000e+00 -4.290750600e+01  1.164670000e-01 -1.322020000e-01 -4.385060000e-01  4.725774465e-01  1.799490000e-01
-3.397803090e+01  5.667529000e+00 -4.308146000e+01  8.296910000e-02 -1.031710000e-01 -2.854600000e-01  3.146673456e-01  1.917230000e-01
-3.406651600e+01  2.841221000e+00 -4.321164800e+01  3.248400000e-02 -5.037900000e-02 -1.546480000e-01  1.658591505e-01  1.948920000e-01
-3.058389000e+01  3.094371800e+01 -3.523307000e+01  3.361100000e-01  2.277180000e-01 -1.685070000e+00  1.733287721e+00  2.071410000e-01
-3.131928500e+01  2.892694400e+01 -3.623773000e+01  2.887150000e-01  1.729440000e-01 -1.609730000e+00  1.644535391e+00  2.021850000e-01
-3.212971100e+01  2.667211300e+01 -3.716938000e+01  2.452890000e-01  1.121130000e-01 -1.512380000e+00  1.536238680e+00  1.963110000e-01
-3.292811600e+01  2.425804110e+01 -3.801280000e+01  2.088840000e-01  5.004110000e-02 -1.394800000e+00  1.411241892e+00  1.901610000e-01
-3.367443600e+01  2.173830710e+01 -3.875597000e+01  1.805640000e-01 -8.692900000e-03 -1.259970000e+00  1.272872077e+00  1.843790000e-01
-3.434851600e+01  1.914388120e+01 -3.939199000e+01  1.594840000e-01 -6.011880000e-02 -1.110990000e+00  1.123987632e+00  1.797180000e-01
-3.494320200e+01  1.649229800e+01 -3.992037500e+01  1.437980000e-01 -1.007020000e-01 -9.513750000e-01  9.674363794e-01  1.769390000e-01
-3.545419400e+01  1.379863300e+01 -4.034219100e+01  1.308060000e-01 -1.273670000e-01 -7.851910000e-01  8.061373759e-01  1.767540000e-01
-3.588087200e+01  1.107344500e+01 -4.066012600e+01  1.171280000e-01 -1.375550000e-01 -6.171260000e-01  6.430278736e-01  1.797690000e-01
-3.622132530e+01  8.326379000e+00 -4.088051400e+01  9.867470000e-02 -1.292210000e-01 -4.525140000e-01  4.808364415e-01  1.862200000e-01
-3.646053940e+01  5.562300000e+00 -4.101824000e+01  7.146060000e-02 -1.015000000e-01 -2.962400000e-01  3.211962094e-01  1.981920000e-01
-3.657380960e+01  2.790311000e+00 -4.111606000e+01  2.619040000e-02 -4.988900000e-02 -1.600600000e-01  1.696881050e-01  2.024640000e-01
-3.216557400e+01  3.068949400e+01 -3.397848000e+01  3.024260000e-01  2.334940000e-01 -1.678480000e+00  1.721416871e+00  2.117940000e-01
-3.311018500e+01  2.879038400e+01 -3.468416000e+01  2.518150000e-01  1.853840000e-01 -1.613160000e+00  1.643186906e+00  2.082670000e-01
-3.406769300e+01  2.657043000e+01 -3.545215000e+01  2.043070000e-01  1.274300000e-01 -1.523150000e+00  1.542065393e+00  2.033390000e-01
-3.497124100e+01  2.416491120e+01 -3.619125000e+01  1.657590000e-01  6.591120000e-02 -1.411250000e+00  1.422479137e+00  1.975440000e-01
-3.579867600e+01  2.164611299e+01 -3.685165000e+01  1.373240000e-01  6.112990000e-03 -1.280650000e+00  1.288006084e+00  1.917380000e-01
-3.653781900e+01  1.905265090e+01 -3.741846000e+01  1.181810000e-01 -4.734910000e-02 -1.134460000e+00  1.141581437e+00  1.868080000e-01
-3.718578800e+01  1.640348300e+01 -3.788510100e+01  1.062120000e-01 -9.051700000e-02 -9.761010000e-01  9.860261043e-01  1.836400000e-01
-3.773858390e+01  1.371407000e+01 -3.825258400e+01  9.841610000e-02 -1.199300000e-01 -8.095840000e-01  8.243149803e-01  1.830710000e-01
-3.819702490e+01  1.099728400e+01 -3.852357300e+01  9.097510000e-02 -1.327160000e-01 -6.395730000e-01  6.595025609e-01  1.858320000e-01
-3.855869000e+01  8.261705000e+00 -3.870334600e+01  7.931000000e-02 -1.265950000e-01 -4.713460000e-01  4.944526487e-01  1.923210000e-01
-3.881617070e+01  5.513575000e+00 -3.880893100e+01  5.882930000e-02 -1.004250000e-01 -3.099310000e-01  3.310638789e-01  2.045830000e-01
-3.895272230e+01  2.764043700e+00 -3.887375400e+01  1.927770000e-02 -4.975630000e-02 -1.667540000e-01  1.750834533e-01  2.102490000e-01
-4.119051300e+01  2.756094700e+00 -3.650028200e+01  1.148700000e-02 -4.990530000e-02 -1.742820000e-01  1.816499537e-01  2.180840000e-01
-4.329627259e+01  2.791909700e+00 -3.397914400e+01  2.727410000e-03 -5.069030000e-02 -1.841440000e-01  1.910129787e-01  2.258920000e-01
-4.525458889e+01  2.849825700e+00 -3.132897600e+01 -7.588890000e-03 -5.167430000e-02 -1.949760000e-01  2.018501055e-01  2.334910000e-01
-4.705469880e+01  2.915591600e+00 -2.855962900e+01 -1.969880000e-02 -5.250840000e-02 -2.056290000e-01  2.131395328e-01  2.406910000e-01
-4.868658140e+01  2.981680600e+00 -2.568315600e+01 -3.358140000e-02 -5.291940000e-02 -2.151560000e-01  2.240988123e-01  2.472800000e-01
-5.014599570e+01  3.044116300e+00 -2.271075000e+01 -4.899570000e-02 -5.268370000e-02 -2.227500000e-01  2.340805702e-01  2.530160000e-01
-5.142350290e+01  3.101098100e+00 -1.965372200e+01 -6.550290000e-02 -5.160190000e-02 -2.277220000e-01  2.425091653e-01  2.576350000e-01
-5.251648640e+01  3.151913000e+00 -1.652249700e+01 -8.248640000e-02 -4.948700000e-02 -2.294970000e-01  2.488409982e-01  2.608790000e-01
-5.341718470e+01  3.196430800e+00 -1.332964500e+01 -9.918470000e-02 -4.616920000e-02 -2.276450000e-01  2.525696850e-01  2.625090000e-01
-5.412370300e+01  3.234288100e+00 -1.008658600e+01 -1.147030000e-01 -4.151190000e-02 -2.218860000e-01  2.532062658e-01  2.623390000e-01
-5.463124400e+01  3.265383700e+00 -6.806483000e+00 -1.282440000e-01 -3.541630000e-02 -2.122830000e-01  2.505292596e-01  2.602050000e-01
-5.493957200e+01  3.288371400e+00 -3.500572000e+00 -1.385720000e-01 -2.802860000e-02 -1.983720000e-01  2.435964942e-01  2.556430000e-01
-4.103346980e+01  5.514075300e+00 -3.646603500e+01  4.453020000e-02 -9.982470000e-02 -3.260350000e-01  3.438702236e-01  2.107490000e-01
-4.311992510e+01  5.589371300e+00 -3.397514900e+01  2.807490000e-02 -9.972870000e-02 -3.461490000e-01  3.613213858e-01  2.167370000e-01
-4.506225881e+01  5.705592900e+00 -3.135099900e+01  8.741190000e-03 -9.950710000e-02 -3.679990000e-01  3.813152703e-01  2.224060000e-01
-4.684973640e+01  5.838047000e+00 -2.860537600e+01 -1.373640000e-02 -9.855300000e-02 -3.893760000e-01  4.018893528e-01  2.276100000e-01
-4.847411050e+01  5.971795600e+00 -2.575041000e+01 -3.911050000e-02 -9.640440000e-02 -4.084100000e-01  4.214524500e-01  2.321660000e-01
-4.992772370e+01  6.098836200e+00 -2.279755300e+01 -6.672370000e-02 -9.266380000e-02 -4.235530000e-01  4.386750230e-01  2.358660000e-01
-5.120256000e+01  6.215421400e+00 -1.975654500e+01 -9.556000000e-02 -8.697860000e-02 -4.335450000e-01  4.523917080e-01  2.385130000e-01
-5.229228900e+01  6.319868400e+00 -1.663938800e+01 -1.242890000e-01 -7.903160000e-02 -4.373880000e-01  4.615214100e-01  2.399330000e-01
-5.319233800e+01  6.411470200e+00 -1.345941800e+01 -1.513380000e-01 -6.852980000e-02 -4.344180000e-01  4.651005509e-01  2.400020000e-01
-5.389697100e+01  6.489816400e+00 -1.022781500e+01 -1.749710000e-01 -5.528360000e-02 -4.243150000e-01  4.622924902e-01  2.386420000e-01
-5.440272600e+01  6.553987300e+00 -6.958759000e+00 -1.937260000e-01 -3.921270000e-02 -4.073590000e-01  4.527789238e-01  2.358940000e-01
-5.470642000e+01  6.601936800e+00 -3.663233000e+00 -2.054200000e-01 -2.056320000e-02 -3.832330000e-01  4.353019112e-01  2.314880000e-01
-4.075841960e+01  8.281449000e+00 -3.638851600e+01  5.758040000e-02 -1.240510000e-01 -4.945160000e-01  5.130791628e-01  1.981720000e-01
-4.282234470e+01  8.402214000e+00 -3.392692500e+01  3.265530000e-02 -1.211860000e-01 -5.229250000e-01  5.377759486e-01  2.038670000e-01
-4.474203303e+01  8.580309000e+00 -3.132922000e+01  3.966970000e-03 -1.173910000e-01 -5.532200000e-01  5.655517237e-01  2.092760000e-01
-4.650936360e+01  8.781593000e+00 -2.860812100e+01 -2.836360000e-02 -1.121070000e-01 -5.821210000e-01  5.934958567e-01  2.143160000e-01
-4.811451250e+01  8.984712000e+00 -2.577587200e+01 -6.351250000e-02 -1.048880000e-01 -6.068720000e-01  6.191356512e-01  2.188540000e-01
-4.955107200e+01  9.177831800e+00 -2.284227200e+01 -1.000720000e-01 -9.536820000e-02 -6.252720000e-01  6.403706526e-01  2.227460000e-01
-5.081112000e+01  9.354775600e+00 -1.981863800e+01 -1.361200000e-01 -8.322440000e-02 -6.356380000e-01  6.553553404e-01  2.258570000e-01
-5.188634300e+01  9.512898700e+00 -1.671782700e+01 -1.693430000e-01 -6.820130000e-02 -6.368270000e-01  6.624779973e-01  2.280720000e-01
-5.277018300e+01  9.650493000e+00 -1.355232600e+01 -1.971830000e-01 -5.010700000e-02 -6.283260000e-01  6.604433429e-01  2.293200000e-01
-5.345699300e+01  9.766831700e+00 -1.033531400e+01 -2.169930000e-01 -2.886830000e-02 -6.102140000e-01  6.482904184e-01  2.295420000e-01
-5.394360600e+01  9.860533700e+00 -7.080879000e+00 -2.266060000e-01 -4.566300000e-03 -5.834790000e-01  6.259543704e-01  2.289600000e-01
-5.422655900e+01  9.928492800e+00 -3.801154000e+00 -2.235590000e-01  2.259280000e-02 -5.487540000e-01  5.929755590e-01  2.276400000e-01
-4.036995340e+01  1.104290900e+01 -3.624120100e+01  6.204660000e-02 -1.270910000e-01 -6.682010000e-01  6.830040112e-01  1.917460000e-01
-4.240255640e+01  1.121394900e+01 -3.380971500e+01  2.944360000e-02 -1.200510000e-01 -7.027150000e-01  7.135037067e-01  1.976360000e-01
-4.428801432e+01  1.145586400e+01 -3.124066000e+01 -7.014320000e-03 -1.111360000e-01 -7.386600000e-01  7.470066979e-01  2.034000000e-01
-4.602160880e+01  1.172796700e+01 -2.854571600e+01 -4.660880000e-02 -1.000330000e-01 -7.717160000e-01  7.795669092e-01  2.089560000e-01
-4.759467750e+01  1.200046950e+01 -2.573732700e+01 -8.767750000e-02 -8.653050000e-02 -7.983270000e-01  8.077752598e-01  2.141610000e-01
-4.900083300e+01  1.225950740e+01 -2.282579600e+01 -1.278330000e-01 -7.049260000e-02 -8.157960000e-01  8.287542435e-01  2.188700000e-01
-5.022906500e+01  1.249615730e+01 -1.982327200e+01 -1.640650000e-01 -5.184270000e-02 -8.222720000e-01  8.400810864e-01  2.229340000e-01
-5.127291600e+01  1.270540540e+01 -1.674174900e+01 -1.929160000e-01 -3.059460000e-02 -8.167490000e-01  8.397806509e-01  2.262080000e-01
-5.212475000e+01  1.288518097e+01 -1.359417700e+01 -2.107500000e-01 -6.819030000e-03 -7.991770000e-01  8.265264297e-01  2.285760000e-01
-5.277803900e+01  1.303427690e+01 -1.039665000e+01 -2.140390000e-01  1.927690000e-02 -7.704500000e-01  7.998609222e-01  2.299200000e-01
-5.322817300e+01  1.315147150e+01 -7.162942000e+00 -2.001730000e-01  4.747150000e-02 -7.327420000e-01  7.610739858e-01  2.305260000e-01
-5.347362000e+01  1.323123290e+01 -3.906113000e+00 -1.666200000e-01  7.723290000e-02 -6.878130000e-01  7.119086095e-01  2.308340000e-01
-3.987365790e+01  1.378954500e+01 -3.601066800e+01  6.334210000e-02 -1.104550000e-01 -8.416680000e-01  8.512447068e-01  1.894380000e-01
-4.186017870e+01  1.401270800e+01 -3.361377000e+01  2.482130000e-02 -9.829200000e-02 -8.797700000e-01  8.855917045e-01  1.959570000e-01
-4.369872440e+01  1.432063510e+01 -3.107527200e+01 -1.672440000e-02 -8.336490000e-02 -9.182720000e-01  9.222000207e-01  2.025420000e-01
-4.538377470e+01  1.466218920e+01 -2.840886800e+01 -5.977470000e-02 -6.581080000e-02 -9.518680000e-01  9.560108606e-01  2.090460000e-01
-4.690867000e+01  1.500311750e+01 -2.562636900e+01 -1.016700000e-01 -4.588250000e-02 -9.763690000e-01  9.827199076e-01  2.152520000e-01
-4.826686900e+01  1.532509250e+01 -2.273877600e+01 -1.388690000e-01 -2.390750000e-02 -9.887760000e-01  9.987663120e-01  2.209290000e-01
-4.944812700e+01  1.561771889e+01 -1.976028200e+01 -1.671270000e-01 -2.811080000e-04 -9.872820000e-01  1.001327749e+00  2.258280000e-01
-5.044477200e+01  1.587351940e+01 -1.670131000e+01 -1.817720000e-01  2.451940000e-02 -9.713100000e-01  9.884762906e-01  2.296740000e-01
-5.124709500e+01  1.608994840e+01 -1.357865100e+01 -1.780950000e-01  4.994840000e-02 -9.416510000e-01  9.596453915e-01  2.322140000e-01
-5.184880800e+01  1.626542100e+01 -1.040563200e+01 -1.518080000e-01  7.542100000e-02 -9.004320000e-01  9.162487559e-01  2.332030000e-01
-5.224501400e+01  1.639638000e+01 -7.199800000e+00 -1.000140000e-01  1.003800000e-01 -8.513000000e-01  8.630125344e-01  2.329060000e-01
-5.243663930e+01  1.647922500e+01 -3.975009000e+00 -2.063930000e-02  1.242250000e-01 -7.979090000e-01  8.077849984e-01  2.321430000e-01
-3.926827120e+01  1.651013830e+01 -3.568851000e+01  6.672880000e-02 -7.686170000e-02 -1.009510000e+00  1.014628451e+00  1.906300000e-01
-4.119612710e+01  1.678570160e+01 -3.332947000e+01  2.487290000e-02 -5.929840000e-02 -1.048470000e+00  1.050440052e+00  1.979350000e-01
-4.297115760e+01  1.715863260e+01 -3.082425000e+01 -1.815760000e-02 -3.836740000e-02 -1.086250000e+00  1.087079030e+00  2.054380000e-01
-4.459092010e+01  1.756709060e+01 -2.818769000e+01 -5.992010000e-02 -1.490940000e-02 -1.116690000e+00  1.118395844e+00  2.128520000e-01
-4.605162880e+01  1.797412300e+01 -2.543413000e+01 -9.662880000e-02  1.012300000e-02 -1.135130000e+00  1.139280350e+00  2.198220000e-01
-4.734551300e+01  1.835471650e+01 -2.257450000e+01 -1.235130000e-01  3.571650000e-02 -1.138500000e+00  1.145737046e+00  2.259640000e-01
-4.846205500e+01  1.869676870e+01 -1.962331000e+01 -1.350550000e-01  6.076870000e-02 -1.125310000e+00  1.135013341e+00  2.308500000e-01
-4.939336700e+01  1.899310350e+01 -1.659273000e+01 -1.253670000e-01  8.410350000e-02 -1.095730000e+00  1.106080701e+00  2.340130000e-01
-5.012874140e+01  1.923752700e+01 -1.349871000e+01 -8.874140000e-02  1.045270000e-01 -1.051710000e+00  1.060610604e+00  2.350050000e-01
-5.066231600e+01  1.942789500e+01 -1.035817000e+01 -2.031600000e-02  1.208950000e-01 -9.969700000e-01  1.004478731e+00  2.334570000e-01
-5.099009740e+01  1.956236000e+01 -7.188686000e+00  8.290260000e-02  1.323600000e-01 -9.369860000e-01  9.499130354e-01  2.295950000e-01
-5.111096700e+01  1.963525000e+01 -4.006191000e+00  2.220330000e-01  1.382500000e-01 -8.776910000e-01  9.158347051e-01  2.246810000e-01
-3.855447810e+01  1.919229670e+01 -3.527207000e+01  7.652190000e-02 -2.970330000e-02 -1.167070000e+00  1.169953107e+00  1.944050000e-01
-4.040852640e+01  1.952080098e+01 -3.295313000e+01  3.447360000e-02 -7.199020000e-03 -1.204130000e+00  1.204644890e+00  2.023960000e-01
-4.210391038e+01  1.995472490e+01 -3.048288000e+01 -5.910380000e-03  1.872490000e-02 -1.237880000e+00  1.238035722e+00  2.105770000e-01
-4.364319340e+01  2.042630330e+01 -2.787954000e+01 -4.119340000e-02  4.630330000e-02 -1.261540000e+00  1.263061385e+00  2.184770000e-01
-4.502244090e+01  2.089265940e+01 -2.515620000e+01 -6.644090000e-02  7.365940000e-02 -1.270200000e+00  1.274067557e+00  2.255550000e-01
-4.623366400e+01  2.132484330e+01 -2.232896000e+01 -7.566400000e-02  9.884330000e-02 -1.260960000e+00  1.267089247e+00  2.312260000e-01
-4.726910740e+01  2.170880400e+01 -1.940892000e+01 -6.210740000e-02  1.198040000e-01 -1.232920000e+00  1.240283054e+00  2.348360000e-01
-4.811877420e+01  2.203444400e+01 -1.641227000e+01 -1.877420000e-02  1.344440000e-01 -1.187270000e+00  1.195005319e+00  2.356930000e-01
-4.877211010e+01  2.229672500e+01 -1.335344000e+01  6.088990000e-02  1.407250000e-01 -1.127440000e+00  1.137818992e+00  2.331570000e-01
-4.922188400e+01  2.248987800e+01 -1.025342000e+01  1.821160000e-01  1.368780000e-01 -1.059020000e+00  1.083247518e+00  2.267980000e-01
-4.946625100e+01  2.261267800e+01 -7.129355000e+00  3.477490000e-01  1.216780000e-01 -9.895550000e-01  1.055913823e+00  2.168810000e-01
-4.950538800e+01  2.266068110e+01 -4.000023000e+00  5.576120000e-01  9.468110000e-02 -9.276230000e-01  1.086452983e+00  2.053760000e-01
-3.773392430e+01  2.182304380e+01 -3.475852000e+01  9.607570000e-02  2.704380000e-02 -1.310520000e+00  1.314315250e+00  1.997530000e-01
-3.949875610e+01  2.220323440e+01 -3.248304000e+01  5.724390000e-02  5.323440000e-02 -1.343040000e+00  1.345313052e+00  2.081060000e-01
-4.109921890e+01  2.269414530e+01 -3.005064000e+01  2.378110000e-02  8.214530000e-02 -1.369640000e+00  1.372307225e+00  2.164730000e-01
-4.254089568e+01  2.322286300e+01 -2.748118000e+01  1.043180000e-04  1.108630000e-01 -1.383180000e+00  1.387615771e+00  2.241860000e-01
-4.382178430e+01  2.373936200e+01 -2.479275000e+01 -7.784300000e-03  1.363620000e-01 -1.378750000e+00  1.385498738e+00  2.304900000e-01
-4.493576707e+01  2.421453100e+01 -2.199992000e+01  7.232930000e-03  1.555310000e-01 -1.353920000e+00  1.362843195e+00  2.345590000e-01
-4.587502290e+01  2.463014800e+01 -1.911661000e+01  5.297710000e-02  1.651480000e-01 -1.308610000e+00  1.320053244e+00  2.354890000e-01
-4.662763900e+01  2.497399600e+01 -1.615933000e+01  1.373610000e-01  1.619960000e-01 -1.245330000e+00  1.263312138e+00  2.323790000e-01
-4.718543700e+01  2.523906400e+01 -1.314413000e+01  2.675630000e-01  1.430640000e-01 -1.169130000e+00  1.207858528e+00  2.244430000e-01
-4.754105700e+01  2.542188100e+01 -1.009263000e+01  4.489430000e-01  1.058810000e-01 -1.087730000e+00  1.181489381e+00  2.113590000e-01
-4.769199300e+01  2.551684480e+01 -7.023960000e+00  6.840070000e-01  4.884480000e-02 -1.010860000e+00  1.221511085e+00  1.937800000e-01
-4.764103300e+01  2.552299080e+01 -3.958830000e+00  9.709670000e-01 -2.800920000e-02 -9.499300000e-01  1.358649489e+00  1.753080000e-01
-3.680931400e+01  2.438287440e+01 -3.415475000e+01  1.276860000e-01  8.887440000e-02 -1.436750000e+00  1.445148067e+00  2.056330000e-01
-3.846649210e+01  2.481379500e+01 -3.192546000e+01  9.550790000e-02  1.167950000e-01 -1.462460000e+00  1.470221780e+00  2.138560000e-01
-3.995600280e+01  2.535780300e+01 -2.953225000e+01  7.299720000e-02  1.458030000e-01 -1.479250000e+00  1.488209551e+00  2.217920000e-01
-4.128556790e+01  2.593667400e+01 -2.699985000e+01  6.543210000e-02  1.716740000e-01 -1.479850000e+00  1.491210698e+00  2.285890000e-01
-4.245421600e+01  2.649504300e+01 -2.434876000e+01  7.978400000e-02  1.900430000e-01 -1.459760000e+00  1.474239155e+00  2.332290000e-01
-4.345698300e+01  2.700244100e+01 -2.159520000e+01  1.240170000e-01  1.964410000e-01 -1.417200000e+00  1.436114592e+00  2.346160000e-01
-4.428621200e+01  2.743633000e+01 -1.875420000e+01  2.067880000e-01  1.863300000e-01 -1.353200000e+00  1.381531898e+00  2.316130000e-01
-4.493236000e+01  2.778525300e+01 -1.584270000e+01  3.366400000e-01  1.552530000e-01 -1.271700000e+00  1.324632354e+00  2.231520000e-01
-4.538491700e+01  2.804110510e+01 -1.287858000e+01  5.210830000e-01  9.910510000e-02 -1.179580000e+00  1.293351573e+00  2.084420000e-01
-4.563960500e+01  2.819676190e+01 -9.883380000e+00  7.653950000e-01  1.476190000e-02 -1.086680000e+00  1.329255747e+00  1.876910000e-01
-4.569148000e+01  2.824915980e+01 -6.879100000e+00  1.071520000e+00 -9.984020000e-02 -1.005000000e+00  1.472463302e+00  1.631620000e-01
-4.554777000e+01  2.819728400e+01 -3.888339000e+00  1.436230000e+00 -2.437160000e-01 -9.486390000e-01  1.738410209e+00  1.431580000e-01
-3.577664000e+01  2.683566100e+01 -3.349004000e+01  1.723600000e-01  1.506610000e-01 -1.543040000e+00  1.559929213e+00  2.110360000e-01
-3.730300000e+01  2.731980100e+01 -3.131838000e+01  1.500000000e-01  1.778010000e-01 -1.560380000e+00  1.577624461e+00  2.185680000e-01
-3.866533600e+01  2.791658300e+01 -2.897054000e+01  1.416640000e-01  2.035830000e-01 -1.565540000e+00  1.585064736e+00  2.255760000e-01
-3.986947000e+01  2.853920700e+01 -2.647751000e+01  1.535300000e-01  2.222070000e-01 -1.551510000e+00  1.574843069e+00  2.308970000e-01
-4.091590600e+01  2.913276400e+01 -2.386531000e+01  1.930940000e-01  2.277640000e-01 -1.514310000e+00  1.543468985e+00  2.331840000e-01
-4.179998800e+01  2.966238400e+01 -2.115211000e+01  2.690120000e-01  2.143840000e-01 -1.453110000e+00  1.493270447e+00  2.310930000e-01
-4.251357300e+01  3.010511000e+01 -1.835518000e+01  3.904270000e-01  1.761100000e-01 -1.370180000e+00  1.435563028e+00  2.232840000e-01
-4.304780300e+01  3.044818400e+01 -1.549200000e+01  5.661970000e-01  1.071840000e-01 -1.271000000e+00  1.395531602e+00  2.086300000e-01
-4.339409100e+01  3.068144889e+01 -1.258227000e+01  8.039090000e-01  2.448890000e-03 -1.164270000e+00  1.414849925e+00  1.866550000e-01
-4.354551000e+01  3.079802600e+01 -9.647850000e+00  1.108490000e+00 -1.419740000e-01 -1.061950000e+00  1.541636954e+00  1.592280000e-01
-4.350157000e+01  3.079358900e+01 -6.712594000e+00  1.481430000e+00 -3.284110000e-01 -9.780940000e-01  1.805313408e+00  1.338430000e-01
-4.326782000e+01  3.066915200e+01 -3.800235000e+00  1.918180000e+00 -5.548480000e-01 -9.292350000e-01  2.202441486e+00  1.280250000e-01
-3.462931800e+01  2.910754000e+01 -3.284702000e+01  2.286820000e-01  2.065400000e-01 -1.627020000e+00  1.655943329e+00  2.150380000e-01
-3.598548600e+01  2.965982200e+01 -3.075976000e+01  2.185140000e-01  2.308220000e-01 -1.635760000e+00  1.666354687e+00  2.216020000e-01
-3.720151800e+01  3.031771700e+01 -2.846433000e+01  2.264820000e-01  2.507170000e-01 -1.629330000e+00  1.663991995e+00  2.275200000e-01
-3.827412900e+01  3.099036500e+01 -2.600965000e+01  2.588710000e-01  2.583650000e-01 -1.600650000e+00  1.641903496e+00  2.310890000e-01
-3.919709900e+01  3.161937300e+01 -2.343055000e+01  3.239010000e-01  2.463730000e-01 -1.546550000e+00  1.599196178e+00  2.306880000e-01
-3.996344400e+01  3.216836400e+01 -2.075029000e+01  4.305560000e-01  2.073640000e-01 -1.467290000e+00  1.543152048e+00  2.247390000e-01
-4.056476200e+01  3.261597600e+01 -1.799043000e+01  5.882380000e-01  1.339760000e-01 -1.366430000e+00  1.493688206e+00  2.117630000e-01
-4.099212700e+01  3.294614330e+01 -1.516902000e+01  8.058730000e-01  1.914330000e-02 -1.251020000e+00  1.488236809e+00  1.907650000e-01
-4.123707000e+01  3.314962300e+01 -1.230651000e+01  1.090930000e+00 -1.433770000e-01 -1.131510000e+00  1.578290249e+00  1.622850000e-01
-4.129504000e+01  3.321887800e+01 -9.425930000e+00  1.447960000e+00 -3.581220000e-01 -1.021830000e+00  1.808030995e+00  1.325510000e-01
-4.116392000e+01  3.314933400e+01 -6.552294000e+00  1.878080000e+00 -6.276660000e-01 -9.377940000e-01  2.191028681e+00  1.197150000e-01
-4.084995000e+01  3.294290600e+01 -3.710473000e+00  2.376050000e+00 -9.490940000e-01 -8.983730000e-01  2.711727691e+00  1.458550000e-01
-3.336717200e+01  3.109156400e+01 -3.236500000e+01  2.908280000e-01  2.515640000e-01 -1.688000000e+00  1.731245035e+00  2.175280000e-01
-3.448872900e+01  3.175596800e+01 -3.039503000e+01  2.952710000e-01  2.729680000e-01 -1.691030000e+00  1.738182658e+00  2.232320000e-01
-3.553965700e+01  3.250811800e+01 -2.815002000e+01  3.193430000e-01  2.861180000e-01 -1.675020000e+00  1.729027317e+00  2.280230000e-01
-3.648210600e+01  3.324923800e+01 -2.571641000e+01  3.708940000e-01  2.812380000e-01 -1.633410000e+00  1.698436163e+00  2.297590000e-01
-3.728948400e+01  3.392422800e+01 -2.315217000e+01  4.585160000e-01  2.492280000e-01 -1.564170000e+00  1.648932778e+00  2.265690000e-01
-3.795056300e+01  3.450135700e+01 -2.048768000e+01  5.914370000e-01  1.813570000e-01 -1.468680000e+00  1.593646457e+00  2.166840000e-01
-3.845185700e+01  3.495684610e+01 -1.774481000e+01  7.791430000e-01  6.884610000e-02 -1.351810000e+00  1.561791880e+00  1.986050000e-01
-3.878647000e+01  3.527630620e+01 -1.494504000e+01  1.030530000e+00 -9.669380000e-02 -1.222040000e+00  1.601475424e+00  1.717860000e-01
-3.894610000e+01  3.544938600e+01 -1.210848000e+01  1.352900000e+00 -3.226140000e-01 -1.091480000e+00  1.767978165e+00  1.390950000e-01
-3.892343000e+01  3.546887900e+01 -9.260270000e+00  1.750570000e+00 -6.141210000e-01 -9.757700000e-01  2.096131442e+00  1.153380000e-01
-3.871958000e+01  3.532994100e+01 -6.426566000e+00  2.224420000e+00 -9.740590000e-01 -8.926660000e-01  2.587216237e+00  1.283620000e-01
-3.834041000e+01  3.503424000e+01 -3.634325000e+00  2.768590000e+00 -1.398760000e+00 -8.630250000e-01  3.219694438e+00  1.909470000e-01
 2.018380000e+00  5.148912140e+01 -4.701910000e+00  2.018380000e+00 -8.187860000e-02 -1.582210000e+00  2.565920968e+00  1.952640000e-01
 1.947690000e+00  5.141694700e+01 -7.852140000e+00  1.947690000e+00  1.249470000e-01 -1.624040000e+00  2.539018316e+00  2.078720000e-01
 1.871620000e+00  5.111528300e+01 -1.098588000e+01  1.871620000e+00  2.942830000e-01 -1.672580000e+00  2.527268835e+00  2.173830000e-01
 1.791040000e+00  5.058849600e+01 -1.408481000e+01  1.791040000e+00  4.234960000e-01 -1.720810000e+00  2.519595245e+00  2.230720000e-01
 1.706490000e+00  4.984013000e+01 -1.713383000e+01  1.706490000e+00  5.131300000e-01 -1.762830000e+00  2.506587347e+00  2.249810000e-01
 1.618990000e+00  4.887511800e+01 -2.011480000e+01  1.618990000e+00  5.661180000e-01 -1.793800000e+00  2.481801090e+00  2.234210000e-01
 1.529380000e+00  4.770190800e+01 -2.301514000e+01  1.529380000e+00  5.869080000e-01 -1.810140000e+00  2.441325665e+00  2.189030000e-01
 1.438510000e+00  4.632875600e+01 -2.581956000e+01  1.438510000e+00  5.807560000e-01 -1.809560000e+00  2.383504971e+00  2.120150000e-01
 1.347140000e+00  4.476810400e+01 -2.851997000e+01  1.347140000e+00  5.531040000e-01 -1.790970000e+00  2.308307552e+00  2.033430000e-01
 1.255960000e+00  4.303017900e+01 -3.110425000e+01  1.255960000e+00  5.091790000e-01 -1.754250000e+00  2.216775099e+00  1.934320000e-01
 1.165510000e+00  4.112675600e+01 -3.356504000e+01  1.165510000e+00  4.537560000e-01 -1.700040000e+00  2.110555394e+00  1.827700000e-01
 1.076130000e+00  3.906309300e+01 -3.588935000e+01  1.076130000e+00  3.910930000e-01 -1.629350000e+00  1.991429370e+00  1.717980000e-01
 9.881510000e-01  3.685854900e+01 -3.807765000e+01  9.881510000e-01  3.245490000e-01 -1.543650000e+00  1.861351599e+00  1.608190000e-01
 9.017200000e-01  3.451726800e+01 -4.011644000e+01  9.017200000e-01  2.572680000e-01 -1.444440000e+00  1.722118665e+00  1.501070000e-01
 8.170030000e-01  3.205649800e+01 -4.200642000e+01  8.170030000e-01  1.914980000e-01 -1.333420000e+00  1.575491759e+00  1.399800000e-01
 7.338940000e-01  2.947956700e+01 -4.373305000e+01  7.338940000e-01  1.295670000e-01 -1.212050000e+00  1.422832813e+00  1.306720000e-01
 6.524700000e-01  2.680207560e+01 -4.529704000e+01  6.524700000e-01  7.307560000e-02 -1.082040000e+00  1.265649124e+00  1.224230000e-01
 5.727510000e-01  2.403354430e+01 -4.669318300e+01  5.727510000e-01  2.354430000e-02 -9.451830000e-01  1.105427042e+00  1.155590000e-01
 4.947390000e-01  2.118744440e+01 -4.791851400e+01  4.947390000e-01 -1.755560000e-02 -8.035140000e-01  9.437741390e-01  1.104780000e-01
 4.184390000e-01  1.827222660e+01 -4.896851700e+01  4.184390000e-01 -4.877340000e-02 -6.595170000e-01  7.825808039e-01  1.076380000e-01
 3.439010000e-01  1.530220130e+01 -4.984340200e+01  3.439010000e-01 -6.879870000e-02 -5.164020000e-01  6.242372822e-01  1.074980000e-01
 2.711700000e-01  1.228766980e+01 -5.054334000e+01  2.711700000e-01 -7.633020000e-02 -3.783400000e-01  4.716997180e-01  1.104680000e-01
 2.003940000e-01  9.242896100e+00 -5.107156500e+01  2.003940000e-01 -7.040390000e-02 -2.505650000e-01  3.284772193e-01  1.165030000e-01
 1.315420000e-01  6.178350000e+00 -5.143191700e+01  1.315420000e-01 -4.975000000e-02 -1.399170000e-01  1.983812671e-01  1.282410000e-01
 6.493290000e-02  3.106476900e+00 -5.161836550e+01  6.493290000e-02 -1.322310000e-02 -4.736550000e-02  8.145319187e-02  1.249870000e-01
 2.319880000e+00  4.817511520e+01 -4.755860000e+00  2.319880000e+00 -6.988480000e-02 -1.837460000e+00  2.960234172e+00  3.673680000e-01
 2.185850000e+00  4.810576300e+01 -7.679050000e+00  2.185850000e+00  1.237630000e-01 -1.852950000e+00  2.868219170e+00  3.609500000e-01
 2.052520000e+00  4.782619200e+01 -1.058072000e+01  2.052520000e+00  2.841920000e-01 -1.868320000e+00  2.790022055e+00  3.512920000e-01
 1.921810000e+00  4.733867700e+01 -1.344677000e+01  1.921810000e+00  4.096770000e-01 -1.879770000e+00  2.719324213e+00  3.386660000e-01
 1.794350000e+00  4.664563600e+01 -1.626310000e+01  1.794350000e+00  5.006360000e-01 -1.884100000e+00  2.649558668e+00  3.235960000e-01
 1.671010000e+00  4.575143100e+01 -1.901761000e+01  1.671010000e+00  5.594310000e-01 -1.878610000e+00  2.575735428e+00  3.066240000e-01
 1.552210000e+00  4.466462800e+01 -2.169830000e+01  1.552210000e+00  5.896280000e-01 -1.861300000e+00  2.494284417e+00  2.883700000e-01
 1.438250000e+00  4.339251800e+01 -2.429190000e+01  1.438250000e+00  5.955180000e-01 -1.830900000e+00  2.403206100e+00  2.694350000e-01
 1.329200000e+00  4.194362100e+01 -2.679085000e+01  1.329200000e+00  5.816210000e-01 -1.786850000e+00  2.301714263e+00  2.503600000e-01
 1.225070000e+00  4.033031500e+01 -2.918622000e+01  1.225070000e+00  5.523150000e-01 -1.729220000e+00  2.189988624e+00  2.315970000e-01
 1.125670000e+00  3.855962400e+01 -3.146750000e+01  1.125670000e+00  5.116240000e-01 -1.658500000e+00  2.068698701e+00  2.134870000e-01
 1.030740000e+00  3.664116900e+01 -3.362542000e+01  1.030740000e+00  4.631690000e-01 -1.575420000e+00  1.938787932e+00  1.962890000e-01
 9.399790000e-01  3.458700900e+01 -3.565802000e+01  9.399790000e-01  4.100090000e-01 -1.481020000e+00  1.801412818e+00  1.801080000e-01
 8.530530000e-01  3.240479800e+01 -3.755432000e+01  8.530530000e-01  3.547980000e-01 -1.376320000e+00  1.657660334e+00  1.650640000e-01
 7.695860000e-01  3.010865600e+01 -3.931061000e+01  7.695860000e-01  2.996560000e-01 -1.262610000e+00  1.508721426e+00  1.512830000e-01
 6.891250000e-01  2.770346800e+01 -4.091900000e+01  6.891250000e-01  2.464680000e-01 -1.141000000e+00  1.355551821e+00  1.387900000e-01
 6.113400000e-01  2.520058800e+01 -4.237481000e+01  6.113400000e-01  1.965880000e-01 -1.012810000e+00  1.199236229e+00  1.276460000e-01
 5.359210000e-01  2.261214300e+01 -4.367650500e+01  5.359210000e-01  1.511430000e-01 -8.795050000e-01  1.040953683e+00  1.179290000e-01
 4.626010000e-01  1.994807100e+01 -4.481778900e+01  4.626010000e-01  1.110710000e-01 -7.427890000e-01  8.820838683e-01  1.097750000e-01
 3.911840000e-01  1.721610650e+01 -4.579682000e+01  3.911840000e-01  7.710650000e-02 -6.048200000e-01  7.244153274e-01  1.033910000e-01
 3.215480000e-01  1.442877400e+01 -4.661339700e+01  3.215480000e-01  4.977400000e-02 -4.683970000e-01  5.703212402e-01  9.908770000e-02
 2.536540000e-01  1.159619450e+01 -4.726605200e+01  2.536540000e-01  2.919450000e-02 -3.370520000e-01  4.228436132e-01  9.725890000e-02
 1.874940000e-01  8.727689900e+00 -4.775758300e+01  1.874940000e-01  1.528990000e-02 -2.155830000e-01  2.861185261e-01  9.869810000e-02
 1.231270000e-01  5.833654400e+00 -4.809078000e+01  1.231270000e-01  7.554400000e-03 -1.087800000e-01  1.644701052e-01  1.049500000e-01
 6.075520000e-02  2.915290320e+00 -4.827285210e+01  6.075520000e-02 -3.109680000e-03 -2.785210000e-02  6.690742792e-02  1.013620000e-01
-3.119700000e+00 -7.631500000e-37 -5.157100000e+01  7.583880000e-37 -7.631500000e-37 -4.163850000e-38  1.076700537e-36  1.169370000e-01
-6.228100000e+00 -7.280250000e-37 -5.129200000e+01  7.531750000e-37 -7.280250000e-37 -8.116390000e-38  1.050657204e-36  1.202470000e-01
-9.313300000e+00 -7.076110000e-37 -5.082100000e+01  7.496220000e-37 -7.076110000e-37 -1.298870000e-37  1.038998125e-36  1.241230000e-01
-1.236400000e+01 -7.016200000e-37 -5.016500000e+01  7.468510000e-37 -7.016200000e-37 -1.781490000e-37  1.040093316e-36  1.285900000e-01
-1.537100000e+01 -6.983880000e-37 -4.932700000e+01  7.498320000e-37 -6.983880000e-37 -2.277040000e-37  1.049687067e-36  1.335670000e-01
-1.832100000e+01 -6.965890000e-37 -4.830900000e+01  7.529130000e-37 -6.965890000e-37 -2.795170000e-37  1.063129331e-36  1.390360000e-01
-2.120500000e+01 -6.947140000e-37 -4.711500000e+01  7.553320000e-37 -6.947140000e-37 -3.343710000e-37  1.079332172e-36  1.450340000e-01
-2.401000000e+01 -6.927950000e-37 -4.574800000e+01  7.554090000e-37 -6.927950000e-37 -3.928420000e-37  1.097694177e-36  1.515940000e-01
-2.672900000e+01 -6.911000000e-37 -4.421500000e+01  7.522450000e-37 -6.911000000e-37 -4.554570000e-37  1.118451085e-36  1.587450000e-01
-2.935000000e+01 -6.904280000e-37 -4.252100000e+01  7.450440000e-37 -6.904280000e-37 -5.225980000e-37  1.142317843e-36  1.665010000e-01
-3.186500000e+01 -6.917910000e-37 -4.067300000e+01  7.333660000e-37 -6.917910000e-37 -5.944560000e-37  1.170375330e-36  1.748590000e-01
-3.426000000e+01 -6.964970000e-37 -3.867200000e+01  7.166840000e-37 -6.964970000e-37 -6.713460000e-37  1.203930845e-36  1.837910000e-01
-3.653400000e+01 -7.055380000e-37 -3.653400000e+01  6.922300000e-37 -7.055380000e-37 -7.524640000e-37  1.242243259e-36  1.932770000e-01
-3.867200000e+01 -7.199420000e-37 -3.426000000e+01  6.607820000e-37 -7.199420000e-37 -8.372380000e-37  1.286824310e-36  2.033070000e-01
-4.067300000e+01 -7.420650000e-37 -3.186500000e+01  6.202890000e-37 -7.420650000e-37 -9.260940000e-37  1.339055266e-36  2.137860000e-01
-4.252100000e+01 -7.698650000e-37 -2.935000000e+01  5.665900000e-37 -7.698650000e-37 -1.017180000e-36  1.395840786e-36  2.245630000e-01
-4.421500000e+01 -8.024560000e-37 -2.672900000e+01  4.965950000e-37 -8.024560000e-37 -1.108040000e-36  1.455436315e-36  2.354960000e-01
-4.574800000e+01 -8.381010000e-37 -2.401000000e+01  4.075260000e-37 -8.381010000e-37 -1.195080000e-36  1.515489008e-36  2.464030000e-01
-4.711500000e+01 -8.751750000e-37 -2.120500000e+01  2.977260000e-37 -8.751750000e-37 -1.274470000e-36  1.574435084e-36  2.570620000e-01
-4.830900000e+01 -9.123950000e-37 -1.832100000e+01  1.662270000e-37 -9.123950000e-37 -1.341940000e-36  1.631226231e-36  2.672050000e-01
-4.932700000e+01 -9.485710000e-37 -1.537100000e+01  1.287880000e-38 -9.485710000e-37 -1.392350000e-36  1.684811956e-36  2.765190000e-01
-5.016500000e+01 -9.825030000e-37 -1.236400000e+01 -1.610660000e-37 -9.825030000e-37 -1.420400000e-36  1.734586568e-36  2.846500000e-01
-5.082100000e+01 -1.012030000e-36 -9.313300000e+00 -3.529560000e-37 -1.012030000e-36 -1.419870000e-36  1.778992264e-36  2.912260000e-01
-5.129200000e+01 -1.035670000e-36 -6.228100000e+00 -5.588570000e-37 -1.035670000e-36 -1.387550000e-36  1.819403336e-36  2.959100000e-01
-5.157100000e+01 -1.054220000e-36 -3.119700000e+00 -7.814370000e-37 -1.054220000e-36 -1.322700000e-36  1.863211980e-36  2.981980000e-01
-2.918400000e+00 -1.066530000e-37 -4.824500000e+01  1.826610000e-37 -1.066530000e-37  9.870010000e-38  2.334129668e-37  9.821650000e-02
-5.826100000e+00 -9.736770000e-38 -4.798200000e+01  2.021900000e-37 -9.736770000e-38  8.104940000e-38  2.386006503e-37  1.032560000e-01
-8.712400000e+00 -8.782070000e-38 -4.754200000e+01  2.310320000e-37 -8.782070000e-38  5.565950000e-38  2.533500352e-37  1.083500000e-01
-1.156700000e+01 -7.323570000e-38 -4.692900000e+01  2.578370000e-37 -7.323570000e-38  2.853790000e-38  2.695511047e-37  1.137350000e-01
-1.437900000e+01 -5.554030000e-38 -4.614500000e+01  2.837960000e-37 -5.554030000e-38 -0.000000000e+00  2.891796925e-37  1.194980000e-01
-1.713900000e+01 -3.674710000e-38 -4.519200000e+01  3.062420000e-37 -3.674710000e-38 -3.628100000e-38  3.105653279e-37  1.256590000e-01
-1.983700000e+01 -1.705000000e-38 -4.407500000e+01  3.256000000e-37 -1.705000000e-38 -7.436640000e-38  3.344195328e-37  1.322720000e-01
-2.246100000e+01  0.000000000e+00 -4.279700000e+01  3.414120000e-37  0.000000000e+00 -1.169430000e-37  3.608847725e-37  1.393870000e-01
-2.500400000e+01  2.287180000e-38 -4.136200000e+01  3.535680000e-37  2.287180000e-38 -1.645300000e-37  3.906450701e-37  1.470480000e-01
-2.745700000e+01  4.169240000e-38 -3.977800000e+01  3.614790000e-37  4.169240000e-38 -2.171480000e-37  4.237435280e-37  1.553000000e-01
-2.980900000e+01  5.855170000e-38 -3.804800000e+01  3.640840000e-37  5.855170000e-38 -2.746080000e-37  4.597771355e-37  1.641810000e-01
-3.205000000e+01  7.313200000e-38 -3.617800000e+01  3.600820000e-37  7.313200000e-38 -3.361160000e-37  4.979772099e-37  1.736990000e-01
-3.417700000e+01  8.452740000e-38 -3.417700000e+01  3.499780000e-37  8.452740000e-38 -4.034140000e-37  5.407146542e-37  1.838920000e-01
-4.824500000e+01 -3.092330000e-37 -2.918400000e+00 -5.817770000e-37 -3.092330000e-37 -1.185650000e-36  1.356412713e-36  3.303200000e-01
-4.798200000e+01 -8.849090000e-38 -5.826100000e+00 -3.667800000e-37 -8.849090000e-38 -1.191750000e-36  1.250050507e-36  3.212620000e-01
-4.754200000e+01  9.820970000e-38 -8.712400000e+00 -1.729500000e-37  9.820970000e-38 -1.165960000e-36  1.182801576e-36  3.104760000e-01
-4.692900000e+01  2.514950000e-37 -1.156700000e+01 -0.000000000e+00  2.514950000e-37 -1.118270000e-36  1.146201347e-36  2.984610000e-01
-4.614500000e+01  3.738270000e-37 -1.437900000e+01  1.445630000e-37  3.738270000e-37 -1.051030000e-36  1.124859612e-36  2.855590000e-01
-4.519200000e+01  4.677880000e-37 -1.713900000e+01  2.662130000e-37  4.677880000e-37 -9.709080000e-37  1.110115903e-36  2.721350000e-01
-4.407500000e+01  5.364000000e-37 -1.983700000e+01  3.635840000e-37  5.364000000e-37 -8.827600000e-37  1.095072373e-36  2.584990000e-01
-4.279700000e+01  5.829150000e-37 -2.246100000e+01  4.383990000e-37  5.829150000e-37 -7.916140000e-37  1.076399696e-36  2.449160000e-01
-4.136200000e+01  6.107470000e-37 -2.500400000e+01  4.933000000e-37  6.107470000e-37 -7.011420000e-37  1.052595313e-36  2.316000000e-01
-3.977800000e+01  6.233720000e-37 -2.745700000e+01  5.317320000e-37  6.233720000e-37 -6.137410000e-37  1.023723393e-36  2.187240000e-01
-3.804800000e+01  6.248900000e-37 -2.980900000e+01  5.578810000e-37  6.248900000e-37 -5.305750000e-37  9.915788183e-37  2.064310000e-01
-3.617800000e+01  6.182380000e-37 -3.205000000e+01  5.753670000e-37  6.182380000e-37 -4.511400000e-37  9.574929289e-37  1.948080000e-01
 4.046000000e-02  4.442233500e+01 -5.006090000e+00  2.752360000e+00 -4.146650000e-01 -2.302290000e+00  3.612197652e+00  5.214970000e-01
-1.851700000e-01  4.440876400e+01 -7.655340000e+00  2.513830000e+00 -1.842360000e-01 -2.256540000e+00  3.383083940e+00  5.051650000e-01
-3.895800000e-01  4.420461140e+01 -1.028267000e+01  2.289420000e+00  1.661140000e-02 -2.207070000e+00  3.180075134e+00  4.822350000e-01
-5.712600000e-01  4.380802800e+01 -1.287967000e+01  2.080940000e+00  1.850280000e-01 -2.154670000e+00  3.001191339e+00  4.550340000e-01
-7.297900000e-01  4.321910100e+01 -1.543510000e+01  1.889110000e+00  3.201010000e-01 -2.099100000e+00  2.842080585e+00  4.250660000e-01
-8.653800000e-01  4.244174100e+01 -1.793858000e+01  1.713820000e+00  4.227410000e-01 -2.039580000e+00  2.697364551e+00  3.936360000e-01
-9.787000000e-01  4.148118900e+01 -2.038009000e+01  1.554400000e+00  4.951890000e-01 -1.975090000e+00  2.561708807e+00  3.618800000e-01
-1.071060000e+00  4.034564300e+01 -2.274773000e+01  1.409840000e+00  5.406430000e-01 -1.904730000e+00  2.430625445e+00  3.307400000e-01
-1.143780000e+00  3.904283900e+01 -2.503176000e+01  1.278920000e+00  5.628390000e-01 -1.827760000e+00  2.300680491e+00  3.009510000e-01
-1.199190000e+00  3.758175700e+01 -2.722371000e+01  1.160210000e+00  5.657570000e-01 -1.743710000e+00  2.169491367e+00  2.730300000e-01
-1.246140000e+00  3.597332000e+01 -2.931350000e+01  1.052160000e+00  5.533200000e-01 -1.652500000e+00  2.035671864e+00  2.472860000e-01
-1.304676000e+00  3.422629900e+01 -3.129361000e+01  9.531240000e-01  5.292990000e-01 -1.554610000e+00  1.898793049e+00  2.238710000e-01
-1.392355000e+00  3.235219500e+01 -3.315445000e+01  8.616450000e-01  4.971950000e-01 -1.450450000e+00  1.758817835e+00  2.027430000e-01
-2.544120000e+00  4.388428400e+01 -5.205850000e+00  2.871580000e+00 -7.077160000e-01 -2.518550000e+00  3.884575618e+00  5.428520000e-01
-2.794770000e+00  4.392777900e+01 -7.811000000e+00  2.596730000e+00 -4.242210000e-01 -2.444300000e+00  3.591319067e+00  5.324800000e-01
-3.011160000e+00  4.377766500e+01 -1.039936000e+01  2.341740000e+00 -1.753350000e-01 -2.369860000e+00  3.336274121e+00  5.126110000e-01
-3.192110000e+00  4.343037800e+01 -1.296192000e+01  2.108290000e+00  3.537800000e-02 -2.295920000e+00  3.117272361e+00  4.864720000e-01
-3.337910000e+00  4.288666200e+01 -1.548814000e+01  1.896690000e+00  2.066620000e-01 -2.222140000e+00  2.928830538e+00  4.560120000e-01
-3.449280000e+00  4.215050200e+01 -1.796729000e+01  1.706320000e+00  3.395020000e-01 -2.147290000e+00  2.763628755e+00  4.229740000e-01
-3.527930000e+00  4.122749600e+01 -2.038591000e+01  1.535970000e+00  4.364960000e-01 -2.069910000e+00  2.614241765e+00  3.888670000e-01
-3.575770000e+00  4.012539000e+01 -2.273357000e+01  1.384030000e+00  5.013900000e-01 -1.988570000e+00  2.474134519e+00  3.549700000e-01
-3.594690000e+00  3.885357900e+01 -2.499916000e+01  1.248710000e+00  5.385790000e-01 -1.902160000e+00  2.338280708e+00  3.223040000e-01
-3.589660000e+00  3.742271500e+01 -2.717391000e+01  1.128040000e+00  5.527150000e-01 -1.809910000e+00  2.203121041e+00  2.916320000e-01
-3.579230000e+00  3.584337100e+01 -2.924572000e+01  1.019770000e+00  5.483710000e-01 -1.711720000e+00  2.066549531e+00  2.634520000e-01
-3.601809000e+00  3.412300200e+01 -3.120623000e+01  9.214910000e-01  5.300020000e-01 -1.608230000e+00  1.927810031e+00  2.380210000e-01
-3.687887000e+00  3.227381400e+01 -3.304571000e+01  8.312130000e-01  5.018140000e-01 -1.499710000e+00  1.786578413e+00  2.153110000e-01
-5.109940000e+00  4.315426000e+01 -5.413620000e+00  2.991560000e+00 -1.029740000e+00 -2.747720000e+00  4.190436839e+00  5.565190000e-01
-5.390650000e+00  4.326077400e+01 -7.964760000e+00  2.677150000e+00 -6.892260000e-01 -2.640160000e+00  3.822644298e+00  5.525360000e-01
-5.622570000e+00  4.316903700e+01 -1.050508000e+01  2.389430000e+00 -3.889630000e-01 -2.536880000e+00  3.506626310e+00  5.371020000e-01
-5.805670000e+00  4.287803700e+01 -1.302547000e+01  2.129530000e+00 -1.329630000e-01 -2.438470000e+00  3.240171773e+00  5.134500000e-01
-5.940620000e+00  4.238716910e+01 -1.551532000e+01  1.897280000e+00  7.716910000e-02 -2.344320000e+00  3.016863061e+00  4.837490000e-01
-6.029160000e+00  4.169855100e+01 -1.796166000e+01  1.691440000e+00  2.425510000e-01 -2.252660000e+00  2.827415310e+00  4.501060000e-01
-6.073700000e+00  4.082016200e+01 -2.035238000e+01  1.510100000e+00  3.661620000e-01 -2.161380000e+00  2.661961706e+00  4.144110000e-01
-6.076980000e+00  3.976132900e+01 -2.267552000e+01  1.351020000e+00  4.523290000e-01 -2.068520000e+00  2.511698938e+00  3.783080000e-01
-6.041950000e+00  3.853013000e+01 -2.491842000e+01  1.211750000e+00  5.061300000e-01 -1.972420000e+00  2.369587790e+00  3.431480000e-01
-5.976340000e+00  3.713890100e+01 -2.707198000e+01  1.089660000e+00  5.329010000e-01 -1.871980000e+00  2.230616846e+00  3.099860000e-01
-5.909783000e+00  3.559683200e+01 -2.912398000e+01  9.817170000e-01  5.378320000e-01 -1.766980000e+00  2.091709791e+00  2.795560000e-01
-5.898107000e+00  3.390904100e+01 -3.106108000e+01  8.845930000e-01  5.260410000e-01 -1.658080000e+00  1.951525863e+00  2.522550000e-01
-5.982919000e+00  3.208745200e+01 -3.287326000e+01  7.957810000e-01  5.024520000e-01 -1.545260000e+00  1.809296515e+00  2.280730000e-01
-7.654470000e+00  4.224408000e+01 -5.624090000e+00  3.104530000e+00 -1.370920000e+00 -2.985490000e+00  4.520030830e+00  5.639410000e-01
-7.967540000e+00  4.241462100e+01 -8.110910000e+00  2.749460000e+00 -9.713790000e-01 -2.840110000e+00  4.070544468e+00  5.668210000e-01
-8.217510000e+00  4.238695900e+01 -1.059384000e+01  2.428490000e+00 -6.180410000e-01 -2.704740000e+00  3.687161079e+00  5.568410000e-01
-8.403990000e+00  4.215671000e+01 -1.306344000e+01  2.142010000e+00 -3.152900000e-01 -2.579440000e+00  3.367658732e+00  5.368110000e-01
-8.529720000e+00  4.172303400e+01 -1.550827000e+01  1.889280000e+00 -6.496600000e-02 -2.463270000e+00  3.105044056e+00  5.088730000e-01
-8.595670000e+00  4.109123900e+01 -1.791671000e+01  1.668330000e+00  1.342390000e-01 -2.353710000e+00  2.888130167e+00  4.754580000e-01
-8.606470000e+00  4.026572200e+01 -2.027295000e+01  1.476530000e+00  2.857220000e-01 -2.247950000e+00  2.704636224e+00  4.388130000e-01
-8.565660000e+00  3.925839500e+01 -2.256532000e+01  1.310940000e+00  3.943950000e-01 -2.143320000e+00  2.543212874e+00  4.009760000e-01
-8.476590000e+00  3.807802100e+01 -2.478157000e+01  1.168410000e+00  4.660210000e-01 -2.037570000e+00  2.394587440e+00  3.636490000e-01
-8.350600000e+00  3.673658500e+01 -2.691019000e+01  1.045600000e+00  5.065850000e-01 -1.929190000e+00  2.252039471e+00  3.282190000e-01
-8.228288000e+00  3.524082800e+01 -2.893874000e+01  9.386120000e-01  5.218280000e-01 -1.817740000e+00  2.111273468e+00  2.956980000e-01
-8.182466000e+00  3.359445600e+01 -3.084879000e+01  8.431340000e-01  5.174560000e-01 -1.703790000e+00  1.970161419e+00  2.666560000e-01
-8.265075000e+00  3.180612200e+01 -3.262696000e+01  7.561250000e-01  4.991220000e-01 -1.586960000e+00  1.827372384e+00  2.411170000e-01
-1.017836000e+01  4.116742000e+01 -5.830000000e+00  3.199640000e+00 -1.718580000e+00 -3.224800000e+00  4.857010231e+00  5.667260000e-01
-1.052428000e+01  4.140375000e+01 -8.242850000e+00  2.805720000e+00 -1.260250000e+00 -3.038250000e+00  4.323338738e+00  5.763200000e-01
-1.079065000e+01  4.144059000e+01 -1.065966000e+01  2.453350000e+00 -8.544100000e-01 -2.868560000e+00  3.870087744e+00  5.723760000e-01
-1.098100000e+01  4.127456400e+01 -1.307096000e+01  2.142000000e+00 -5.054360000e-01 -2.714960000e+00  3.494944542e+00  5.567810000e-01
-1.109568000e+01  4.090372400e+01 -1.546390000e+01  1.870320000e+00 -2.152760000e-01 -2.575900000e+00  3.190564444e+00  5.314140000e-01
-1.114037000e+01  4.033265000e+01 -1.782603000e+01  1.635630000e+00  1.765000000e-02 -2.448030000e+00  2.944222801e+00  4.989460000e-01
-1.111739000e+01  3.956818100e+01 -2.014169000e+01  1.434610000e+00  1.971810000e-01 -2.327690000e+00  2.741373184e+00  4.619550000e-01
-1.103239000e+01  3.862080200e+01 -2.239845000e+01  1.263610000e+00  3.288020000e-01 -2.211450000e+00  2.568137864e+00  4.228600000e-01
-1.089020000e+01  3.750090600e+01 -2.458443000e+01  1.118800000e+00  4.189060000e-01 -2.096430000e+00  2.412926526e+00  3.837210000e-01
-1.070383000e+01  3.622006100e+01 -2.668462000e+01  9.961700000e-01  4.740610000e-01 -1.980620000e+00  2.267144478e+00  3.462750000e-01
-1.052612900e+01  3.478142900e+01 -2.868531000e+01  8.908710000e-01  5.004290000e-01 -1.863310000e+00  2.125089287e+00  3.118460000e-01
-1.044640300e+01  3.318420000e+01 -3.056385000e+01  7.975970000e-01  5.042000000e-01 -1.744850000e+00  1.983653230e+00  2.812130000e-01
-1.052521400e+01  3.143571300e+01 -3.230343000e+01  7.127860000e-01  4.917130000e-01 -1.624430000e+00  1.840820030e+00  2.544510000e-01
-1.268570000e+01  3.994370000e+01 -6.020600000e+00  3.263300000e+00 -2.057300000e+00 -3.455100000e+00  5.178737895e+00  5.669820000e-01
-1.305775000e+01  4.024271000e+01 -8.351920000e+00  2.836250000e+00 -1.543290000e+00 -3.226220000e+00  4.564488315e+00  5.823640000e-01
-1.333774000e+01  4.034390000e+01 -1.069559000e+01  2.457260000e+00 -1.088100000e+00 -3.021890000e+00  4.043996475e+00  5.844150000e-01
-1.352800000e+01  4.024221800e+01 -1.304108000e+01  2.125000000e+00 -6.957820000e-01 -2.840080000e+00  3.614663470e+00  5.736300000e-01
-1.363242000e+01  3.993686600e+01 -1.537647000e+01  1.837580000e+00 -3.681340000e-01 -2.678470000e+00  3.269009703e+00  5.513570000e-01
-1.365328000e+01  3.943078000e+01 -1.768576000e+01  1.591720000e+00 -1.032200000e-01 -2.532760000e+00  2.993175595e+00  5.203940000e-01
-1.359745000e+01  3.873324800e+01 -1.995645000e+01  1.383550000e+00  1.032480000e-01 -2.398450000e+00  2.770818138e+00  4.835960000e-01
-1.346821000e+01  3.785328100e+01 -2.217328000e+01  1.208790000e+00  2.572810000e-01 -2.271280000e+00  2.585745466e+00  4.437180000e-01
-1.327295000e+01  3.680381500e+01 -2.432272000e+01  1.063050000e+00  3.658150000e-01 -2.147720000e+00  2.424169366e+00  4.031530000e-01
-1.302834400e+01  3.559386600e+01 -2.639231000e+01  9.416560000e-01  4.358660000e-01 -2.025310000e+00  2.275648433e+00  3.639810000e-01
-1.279711400e+01  3.422187100e+01 -2.836294000e+01  8.388860000e-01  4.738710000e-01 -1.902940000e+00  2.132947278e+00  3.278600000e-01
-1.268257100e+01  3.268331600e+01 -3.020570000e+01  7.484290000e-01  4.863160000e-01 -1.780700000e+00  1.991868899e+00  2.958170000e-01
-1.275476000e+01  3.098015300e+01 -3.190025000e+01  6.662400000e-01  4.801530000e-01 -1.657250000e+00  1.849567572e+00  2.679950000e-01
-1.518004000e+01  3.859216000e+01 -6.182160000e+00  3.280960000e+00 -2.369840000e+00 -3.662560000e+00  5.458496670e+00  5.670760000e-01
-1.556948000e+01  3.895061000e+01 -8.427610000e+00  2.830520000e+00 -1.806390000e+00 -3.393410000e+00  4.773899845e+00  5.866100000e-01
-1.585504000e+01  3.911104000e+01 -1.069393000e+01  2.432960000e+00 -1.307960000e+00 -3.156730000e+00  4.194639200e+00  5.939540000e-01
-1.604084000e+01  3.907226600e+01 -1.296887000e+01  2.086160000e+00 -8.777340000e-01 -2.948870000e+00  3.717299396e+00  5.878150000e-01
-1.613001000e+01  3.883186900e+01 -1.524161000e+01  1.787990000e+00 -5.171310000e-01 -2.766610000e+00  3.334436025e+00  5.687840000e-01
-1.612615000e+01  3.839425600e+01 -1.749470000e+01  1.534850000e+00 -2.237440000e-01 -2.604700000e+00  3.031548777e+00  5.396640000e-01
-1.603551000e+01  3.776814113e+01 -1.971482000e+01  1.322490000e+00  7.141130000e-03 -2.457820000e+00  2.791041015e+00  5.034870000e-01
-1.586379000e+01  3.696296500e+01 -2.188698000e+01  1.146210000e+00  1.819650000e-01 -2.320980000e+00  2.594967589e+00  4.632740000e-01
-1.561779000e+01  3.599106300e+01 -2.399808000e+01  1.001210000e+00  3.080630000e-01 -2.190080000e+00  2.427709761e+00  4.216890000e-01
-1.531668300e+01  3.485975500e+01 -2.603318000e+01  8.823170000e-01  3.927550000e-01 -2.062180000e+00  2.277131119e+00  3.811180000e-01
-1.503199200e+01  3.356552000e+01 -2.796983000e+01  7.830080000e-01  4.425200000e-01 -1.935830000e+00  2.134563953e+00  3.435500000e-01
-1.488297900e+01  3.209293900e+01 -2.977367000e+01  6.960210000e-01  4.639390000e-01 -1.810670000e+00  1.994545181e+00  3.103050000e-01
-1.494808600e+01  3.044342500e+01 -3.141692000e+01  6.169140000e-01  4.644250000e-01 -1.684920000e+00  1.853437042e+00  2.816080000e-01
-1.766471000e+01  3.713595000e+01 -6.297770000e+00  3.239290000e+00 -2.638050000e+00 -3.830170000e+00  5.667672338e+00  5.691710000e-01
-1.805785000e+01  3.754406000e+01 -8.457620000e+00  2.779150000e+00 -2.034940000e+00 -3.527320000e+00  4.930176661e+00  5.908740000e-01
-1.833921000e+01  3.775961000e+01 -1.064584000e+01  2.373790000e+00 -1.502390000e+00 -3.263940000e+00  4.306432282e+00  6.022240000e-01
-1.851299000e+01  3.777770000e+01 -1.284936000e+01  2.021010000e+00 -1.042300000e+00 -3.034660000e+00  3.792101268e+00  6.000010000e-01
-1.858226000e+01  3.760054800e+01 -1.505547000e+01  1.718740000e+00 -6.554520000e-01 -2.835470000e+00  3.379877902e+00  5.839340000e-01
-1.855061000e+01  3.723210200e+01 -1.724932000e+01  1.463390000e+00 -3.388980000e-01 -2.660320000e+00  3.055104687e+00  5.567050000e-01
-1.842436000e+01  3.668045060e+01 -1.941521000e+01  1.250640000e+00 -8.754940000e-02 -2.503210000e+00  2.799611689e+00  5.214130000e-01
-1.821037000e+01  3.595431100e+01 -2.153964000e+01  1.075630000e+00  1.053110000e-01 -2.358640000e+00  2.594465832e+00  4.812470000e-01
-1.791461100e+01  3.506725900e+01 -2.360803000e+01  9.333890000e-01  2.472590000e-01 -2.222030000e+00  2.422760690e+00  4.390560000e-01
-1.755958500e+01  3.402368800e+01 -2.560613000e+01  8.184150000e-01  3.456880000e-01 -2.090130000e+00  2.271111341e+00  3.974410000e-01
-1.722543300e+01  3.281492500e+01 -2.750706000e+01  7.235670000e-01  4.069250000e-01 -1.961060000e+00  2.129528934e+00  3.586960000e-01
-1.704223900e+01  3.141732300e+01 -2.926707000e+01  6.407610000e-01  4.373230000e-01 -1.834070000e+00  1.991391180e+00  3.244680000e-01
-1.709880600e+01  2.982860900e+01 -3.085485000e+01  5.651940000e-01  4.446090000e-01 -1.706850000e+00  1.852149655e+00  2.951000000e-01
-2.013971000e+01  3.559682000e+01 -6.350280000e+00  3.129290000e+00 -2.844180000e+00 -3.940580000e+00  5.780137240e+00  5.747750000e-01
-2.051958000e+01  3.604522000e+01 -8.429620000e+00  2.675420000e+00 -2.214780000e+00 -3.615220000e+00  5.013276202e+00  5.968800000e-01
-2.078498000e+01  3.630376000e+01 -1.054250000e+01  2.275020000e+00 -1.660240000e+00 -3.334200000e+00  4.364516296e+00  6.105300000e-01
-2.093667000e+01  3.637421000e+01 -1.267508000e+01  1.926330000e+00 -1.180790000e+00 -3.090680000e+00  3.828487319e+00  6.109800000e-01
-2.098019000e+01  3.625658700e+01 -1.481510000e+01  1.627810000e+00 -7.764130000e-01 -2.880100000e+00  3.398169883e+00  5.971510000e-01
-2.091777000e+01  3.595538000e+01 -1.694694000e+01  1.376230000e+00 -4.436200000e-01 -2.695940000e+00  3.059231963e+00  5.715240000e-01
-2.075547000e+01  3.547891400e+01 -1.905591000e+01  1.167530000e+00 -1.770860000e-01 -2.531910000e+00  2.793752673e+00  5.371490000e-01
-2.049899000e+01  3.483600950e+01 -2.112920000e+01  9.970100000e-01  3.000950000e-02 -2.382200000e+00  2.582596823e+00  4.972770000e-01
-2.015625000e+01  3.403822200e+01 -2.315305000e+01  8.597500000e-01  1.852220000e-01 -2.242050000e+00  2.408374027e+00  4.548610000e-01
-1.975076800e+01  3.309087500e+01 -2.511291000e+01  7.502320000e-01  2.958750000e-01 -2.107910000e+00  2.256917065e+00  4.126130000e-01
-1.936911500e+01  3.197479100e+01 -2.697368000e+01  6.608850000e-01  3.677910000e-01 -1.977680000e+00  2.117370394e+00  3.730050000e-01
-1.915402800e+01  3.065990600e+01 -2.868707000e+01  5.829720000e-01  4.069060000e-01 -1.850070000e+00  1.981965653e+00  3.380300000e-01
-1.919951900e+01  2.913892000e+01 -3.021441000e+01  5.114810000e-01  4.209200000e-01 -1.722410000e+00  1.845394990e+00  3.082140000e-01
-2.259974000e+01  3.399752000e+01 -6.325080000e+00  2.948260000e+00 -2.972480000e+00 -3.978480000e+00  5.775480715e+00  5.847550000e-01
-2.294917000e+01  3.447068000e+01 -8.334540000e+00  2.516830000e+00 -2.333320000e+00 -3.645840000e+00  5.007091449e+00  6.060050000e-01
-2.318360000e+01  3.476285000e+01 -1.037959000e+01  2.134400000e+00 -1.771150000e+00 -3.358890000e+00  4.356004788e+00  6.200650000e-01
-2.330476000e+01  3.487543000e+01 -1.244602000e+01  1.800240000e+00 -1.284570000e+00 -3.110220000e+00  3.816340209e+00  6.215070000e-01
-2.331531000e+01  3.481120400e+01 -1.452220000e+01  1.513690000e+00 -8.727960000e-01 -2.895200000e+00  3.381599224e+00  6.087360000e-01
-2.321777000e+01  3.457306500e+01 -1.659334000e+01  1.272230000e+00 -5.319350000e-01 -2.707340000e+00  3.038291278e+00  5.840170000e-01
-2.301764000e+01  3.417042200e+01 -1.864642000e+01  1.072360000e+00 -2.565780000e-01 -2.540420000e+00  2.769390188e+00  5.502640000e-01
-2.272020900e+01  3.361194230e+01 -2.066876000e+01  9.097910000e-01 -4.005770000e-02 -2.388760000e+00  2.556462130e+00  5.106970000e-01
-2.233203000e+01  3.290696200e+01 -2.264758000e+01  7.799700000e-01  1.249620000e-01 -2.247580000e+00  2.382348538e+00  4.682890000e-01
-2.187855100e+01  3.205837800e+01 -2.456634000e+01  6.774490000e-01  2.453780000e-01 -2.113340000e+00  2.232790511e+00  4.258280000e-01
-2.145230700e+01  3.104058900e+01 -2.638851000e+01  5.946930000e-01  3.265890000e-01 -1.983510000e+00  2.096337773e+00  3.858440000e-01
-2.120545100e+01  2.981356200e+01 -2.805173000e+01  5.225490000e-01  3.735620000e-01 -1.856730000e+00  1.964701585e+00  3.504550000e-01
-2.123400000e+01  2.836989700e+01 -2.951310000e+01  4.560000000e-01  3.938970000e-01 -1.730100000e+00  1.832030801e+00  3.205480000e-01
-2.503087000e+01  3.235610000e+01 -6.218190000e+00  2.700130000e+00 -3.009900000e+00 -3.933490000e+00  5.641147366e+00  5.996090000e-01
-2.533485000e+01  3.283763000e+01 -8.177700000e+00  2.304150000e+00 -2.378370000e+00 -3.610100000e+00  4.898833850e+00  6.191680000e-01
-2.552744000e+01  3.314989000e+01 -1.017161000e+01  1.950560000e+00 -1.823110000e+00 -3.329810000e+00  4.268026361e+00  6.316210000e-01
-2.560897000e+01  3.329415000e+01 -1.218646000e+01  1.640030000e+00 -1.341850000e+00 -3.085760000e+00  3.743283933e+00  6.319700000e-01
-2.557902000e+01  3.327275400e+01 -1.421083000e+01  1.372980000e+00 -9.332460000e-01 -2.873830000e+00  3.318873460e+00  6.186090000e-01
-2.544023000e+01  3.309081200e+01 -1.623206000e+01  1.147770000e+00 -5.931880000e-01 -2.688060000e+00  2.982434331e+00  5.936430000e-01
-2.519737700e+01  3.275562400e+01 -1.823873000e+01  9.616230000e-01 -3.163760000e-01 -2.522730000e+00  2.718267687e+00  5.598170000e-01
-2.485415400e+01  3.227455440e+01 -2.021654000e+01  8.108460000e-01 -9.644560000e-02 -2.372540000e+00  2.509127147e+00  5.202390000e-01
-2.441869000e+01  3.165747370e+01 -2.215603000e+01  6.913100000e-01  7.347370000e-02 -2.233030000e+00  2.338745579e+00  4.778530000e-01
-2.391601300e+01  3.090382100e+01 -2.404077000e+01  5.979870000e-01  1.998210000e-01 -2.100770000e+00  2.193342535e+00  4.354230000e-01
-2.344291100e+01  2.998002000e+01 -2.582524000e+01  5.230890000e-01  2.870200000e-01 -1.973240000e+00  2.061474880e+00  3.955850000e-01
-2.314605300e+01  2.885798000e+01 -2.743340000e+01  4.589470000e-01  3.399800000e-01 -1.849400000e+00  1.935587536e+00  3.606780000e-01
-2.313001000e+01  2.754322100e+01 -2.879669000e+01  4.009900000e-01  3.652210000e-01 -1.728690000e+00  1.811780471e+00  3.316460000e-01
-2.741694000e+01  3.068756000e+01 -6.043150000e+00  2.394060000e+00 -2.947440000e+00 -3.802650000e+00  5.373925275e+00  6.197120000e-01
-2.766623000e+01  3.116356000e+01 -7.985800000e+00  2.040770000e+00 -2.338440000e+00 -3.502700000e+00  4.679952042e+00  6.369880000e-01
-2.780715000e+01  3.148122000e+01 -9.959290000e+00  1.722850000e+00 -1.802780000e+00 -3.240190000e+00  4.088650032e+00  6.459270000e-01
-2.783762000e+01  3.164290000e+01 -1.195084000e+01  1.442380000e+00 -1.338100000e+00 -3.009740000e+00  3.595762303e+00  6.430580000e-01
-2.775720000e+01  3.165026900e+01 -1.395008000e+01  1.200800000e+00 -9.427310000e-01 -2.808080000e+00  3.196243993e+00  6.272380000e-01
-2.756671400e+01  3.150843500e+01 -1.594510000e+01  9.972860000e-01 -6.125650000e-01 -2.630100000e+00  2.878756894e+00  6.005190000e-01
-2.727027400e+01  3.122552400e+01 -1.792580000e+01  8.297260000e-01 -3.424760000e-01 -2.470800000e+00  2.628799666e+00  5.655050000e-01
-2.687300700e+01  3.080651800e+01 -1.987951000e+01  6.949930000e-01 -1.264820000e-01 -2.325510000e+00  2.430434061e+00  5.251830000e-01
-2.637956500e+01  3.026181920e+01 -2.179728000e+01  5.894350000e-01  4.181920000e-02 -2.190280000e+00  2.268591841e+00  4.824460000e-01
-2.581678200e+01  2.958723400e+01 -2.366095000e+01  5.082180000e-01  1.682340000e-01 -2.061950000e+00  2.130311249e+00  4.400300000e-01
-2.526947800e+01  2.876851500e+01 -2.540853000e+01  4.455220000e-01  2.565150000e-01 -1.939530000e+00  2.006506023e+00  4.005370000e-01
-2.485991100e+01  2.782031800e+01 -2.693260000e+01  3.950890000e-01  3.103180000e-01 -1.825600000e+00  1.893464533e+00  3.669510000e-01
-2.472797100e+01  2.676826900e+01 -2.813129000e+01  3.520290000e-01  3.382690000e-01 -1.721290000e+00  1.789186854e+00  3.408530000e-01
-2.973629000e+01  2.899493000e+01 -5.823620000e+00  2.044710000e+00 -2.786070000e+00 -3.593720000e+00  4.985764582e+00  6.437750000e-01
-2.992621000e+01  2.945153000e+01 -7.790620000e+00  1.735790000e+00 -2.211470000e+00 -3.327120000e+00  4.355834476e+00  6.573610000e-01
-3.000836000e+01  2.976086000e+01 -9.782180000e+00  1.456640000e+00 -1.706140000e+00 -3.090780000e+00  3.819114400e+00  6.607320000e-01
-2.997878000e+01  2.992414000e+01 -1.178683000e+01  1.210220000e+00 -1.267860000e+00 -2.881030000e+00  3.372304151e+00  6.525460000e-01
-2.983645200e+01  2.994410700e+01 -1.379550000e+01  9.985480000e-01 -8.948930000e-01 -2.695500000e+00  3.010589949e+00  6.324330000e-01
-2.958168300e+01  2.982477000e+01 -1.579606000e+01  8.213170000e-01 -5.832300000e-01 -2.530060000e+00  2.723219134e+00  6.025030000e-01
-2.921812500e+01  2.957404000e+01 -1.777953000e+01  6.768750000e-01 -3.279600000e-01 -2.380530000e+00  2.496525707e+00  5.652700000e-01
-2.875053200e+01  2.919753700e+01 -1.973602000e+01  5.624680000e-01 -1.234630000e-01 -2.243020000e+00  2.315761664e+00  5.235770000e-01
-2.818429000e+01  2.870420300e+01 -2.165419000e+01  4.747100000e-01  3.620300000e-02 -2.114190000e+00  2.167131652e+00  4.802090000e-01
-2.753600400e+01  2.810308100e+01 -2.351023000e+01  4.099960000e-01  1.560810000e-01 -1.992230000e+00  2.039960385e+00  4.378290000e-01
-2.685735800e+01  2.742289700e+01 -2.522468000e+01  3.646420000e-01  2.398970000e-01 -1.878680000e+00  1.928717942e+00  3.988350000e-01
-2.623290700e+01  2.674649700e+01 -2.666725000e+01  3.350930000e-01  2.924970000e-01 -1.781250000e+00  1.835944818e+00  3.663430000e-01
-2.579068800e+01  2.623126700e+01 -2.763363000e+01  3.193120000e-01  3.182670000e-01 -1.714630000e+00  1.772910058e+00  3.465360000e-01
-1.508643000e+00  3.036195100e+01 -3.489140000e+01  7.766570000e-01  4.599510000e-01 -1.340400000e+00  1.615989845e+00  1.836860000e-01
-1.641231000e+00  2.826287100e+01 -3.649861000e+01  6.973690000e-01  4.198710000e-01 -1.224610000e+00  1.470470955e+00  1.665320000e-01
-1.779020000e+00  2.606674400e+01 -3.797360000e+01  6.229800000e-01  3.787440000e-01 -1.103600000e+00  1.322680633e+00  1.511820000e-01
-1.915653000e+00  2.378200300e+01 -3.930928600e+01  5.527470000e-01  3.380030000e-01 -9.782860000e-01  1.173379211e+00  1.375230000e-01
-2.048719000e+00  2.141966000e+01 -4.050399600e+01  4.859810000e-01  2.986600000e-01 -8.499960000e-01  1.023654496e+00  1.255000000e-01
-2.178905000e+00  1.899233400e+01 -4.155447500e+01  4.220950000e-01  2.613340000e-01 -7.204750000e-01  8.749536412e-01  1.151600000e-01
-2.309394000e+00  1.651319800e+01 -4.245600800e+01  3.606060000e-01  2.261980000e-01 -5.920080000e-01  7.291609524e-01  1.067000000e-01
-2.448894000e+00  1.399802600e+01 -4.320936500e+01  3.012060000e-01  1.930260000e-01 -4.673650000e-01  5.885695663e-01  1.005130000e-01
-2.612343000e+00  1.146992200e+01 -4.381225900e+01  2.437570000e-01  1.609220000e-01 -3.502590000e-01  4.560643948e-01  9.716670000e-02
-2.820411000e+00  8.946661000e+00 -4.426931100e+01  1.884890000e-01  1.287610000e-01 -2.443110000e-01  3.343581358e-01  9.754120000e-02
-3.102713000e+00  6.377488900e+00 -4.459184300e+01  1.336870000e-01  9.338890000e-02 -1.508430000e-01  2.221425472e-01  1.043300000e-01
-3.387539500e+00  3.504891800e+00 -4.480954540e+01  7.286050000e-02  4.799180000e-02 -7.654540000e-02  1.160649111e-01  1.051280000e-01
-3.834793000e+00  3.030524400e+01 -3.475830000e+01  7.477070000e-01  4.672440000e-01 -1.386300000e+00  1.642927388e+00  1.949400000e-01
-4.019283000e+00  2.822994000e+01 -3.634065000e+01  6.703170000e-01  4.289400000e-01 -1.267650000e+00  1.496746781e+00  1.766250000e-01
-4.219673000e+00  2.605582700e+01 -3.779097000e+01  5.983270000e-01  3.888270000e-01 -1.143970000e+00  1.348276305e+00  1.602710000e-01
-4.422890000e+00  2.379347200e+01 -3.910502000e+01  5.310100000e-01  3.484720000e-01 -1.016020000e+00  1.198207409e+00  1.457350000e-01
-4.623669000e+00  2.145500200e+01 -4.027907200e+01  4.676310000e-01  3.090020000e-01 -8.850720000e-01  1.047622753e+00  1.329560000e-01
-4.822612000e+00  1.905215000e+01 -4.130989600e+01  4.074880000e-01  2.711500000e-01 -7.528960000e-01  8.980095653e-01  1.219890000e-01
-5.025360000e+00  1.659821500e+01 -4.219472700e+01  3.499400000e-01  2.352150000e-01 -6.217270000e-01  7.512180525e-01  1.130360000e-01
-5.245081000e+00  1.410705400e+01 -4.293225700e+01  2.944190000e-01  2.010540000e-01 -4.942570000e-01  6.094220545e-01  1.064810000e-01
-5.500968000e+00  1.159296100e+01 -4.351881500e+01  2.405320000e-01  1.679610000e-01 -3.738150000e-01  4.751885886e-01  1.028240000e-01
-5.812774000e+00  9.051410000e+00 -4.396088500e+01  1.875260000e-01  1.348100000e-01 -2.628850000e-01  3.499260779e-01  1.028880000e-01
-6.158632000e+00  6.370882300e+00 -4.427521600e+01  1.331680000e-01  9.708230000e-02 -1.612160000e-01  2.305412932e-01  1.096460000e-01
-6.290650900e+00  3.309443700e+00 -4.450671050e+01  6.914910000e-02  4.714370000e-02 -7.771050000e-02  1.142061657e-01  1.105570000e-01
-6.159198000e+00  3.014308700e+01 -3.455445000e+01  7.139020000e-01  4.710870000e-01 -1.428450000e+00  1.664946975e+00  2.064620000e-01
-6.393550000e+00  2.808698900e+01 -3.610479000e+01  6.384500000e-01  4.349890000e-01 -1.306790000e+00  1.518069148e+00  1.870210000e-01
-6.654144000e+00  2.593125600e+01 -3.752320000e+01  5.688560000e-01  3.962560000e-01 -1.180200000e+00  1.368754180e+00  1.696780000e-01
-6.920973000e+00  2.368459800e+01 -3.880726000e+01  5.044270000e-01  3.565980000e-01 -1.049260000e+00  1.217602267e+00  1.542720000e-01
-7.184921000e+00  2.136024500e+01 -3.995317700e+01  4.443790000e-01  3.172450000e-01 -9.151770000e-01  1.065676324e+00  1.407430000e-01
-7.445017000e+00  1.896903500e+01 -4.095865000e+01  3.878830000e-01  2.790350000e-01 -7.796500000e-01  9.144221538e-01  1.291620000e-01
-7.706005000e+00  1.652034900e+01 -4.181984200e+01  3.340950000e-01  2.423490000e-01 -6.448420000e-01  7.656198220e-01  1.197530000e-01
-7.978818000e+00  1.402410400e+01 -4.253527700e+01  2.821820000e-01  2.071040000e-01 -5.132770000e-01  6.212664699e-01  1.129010000e-01
-8.277378000e+00  1.148862200e+01 -4.310293600e+01  2.313220000e-01  1.726220000e-01 -3.879360000e-01  4.835313461e-01  1.091020000e-01
-8.607176000e+00  8.892469000e+00 -4.352816600e+01  1.804240000e-01  1.372690000e-01 -2.711660000e-01  3.534495688e-01  1.091460000e-01
-8.905170000e+00  6.136070200e+00 -4.383259300e+01  1.274300000e-01  9.677020000e-02 -1.635930000e-01  2.288351943e-01  1.159450000e-01
-8.909168600e+00  3.092499500e+00 -4.406941100e+01  6.433140000e-02  4.459950000e-02 -7.841100000e-02  1.107967930e-01  1.163940000e-01
-8.468418000e+00  2.988749400e+01 -3.426990000e+01  6.760820000e-01  4.714940000e-01 -1.466900000e+00  1.682613762e+00  2.183470000e-01
-8.749192000e+00  2.785307100e+01 -3.578033000e+01  6.027080000e-01  4.380710000e-01 -1.342330000e+00  1.535256644e+00  1.978220000e-01
-9.065477000e+00  2.571514400e+01 -3.715787000e+01  5.356230000e-01  4.011440000e-01 -1.212870000e+00  1.385229997e+00  1.795010000e-01
-9.390101000e+00  2.348456600e+01 -3.840295000e+01  4.741990000e-01  3.625660000e-01 -1.078950000e+00  1.233066056e+00  1.632190000e-01
-9.709376000e+00  2.117266100e+01 -3.951268100e+01  4.176240000e-01  3.236610000e-01 -9.416810000e-01  1.079782086e+00  1.489220000e-01
-1.001905500e+01  1.879035100e+01 -4.048570500e+01  3.649450000e-01  2.853510000e-01 -8.027050000e-01  9.267930531e-01  1.367080000e-01
-1.032186300e+01  1.634509000e+01 -4.131812300e+01  3.151370000e-01  2.480900000e-01 -6.641230000e-01  7.758346061e-01  1.268280000e-01
-1.062488800e+01  1.384483500e+01 -4.200738300e+01  2.671120000e-01  2.118350000e-01 -5.283830000e-01  6.288175272e-01  1.196870000e-01
-1.093322300e+01  1.129083400e+01 -4.255343300e+01  2.197770000e-01  1.758340000e-01 -3.984330000e-01  4.878200291e-01  1.157860000e-01
-1.124315900e+01  8.665337000e+00 -4.296191100e+01  1.718410000e-01  1.384370000e-01 -2.769110000e-01  3.540816773e-01  1.158710000e-01
-1.148276000e+01  5.899122500e+00 -4.325510900e+01  1.212400000e-01  9.592250000e-02 -1.661090000e-01  2.269195088e-01  1.226960000e-01
-1.143676370e+01  2.941266100e+00 -4.349056420e+01  6.023630000e-02  4.326610000e-02 -8.056420000e-02  1.095032309e-01  1.226210000e-01
-1.075216300e+01  2.954833800e+01 -3.390046000e+01  6.348370000e-01  4.683380000e-01 -1.501460000e+00  1.696095702e+00  2.306240000e-01
-1.107527100e+01  2.753907100e+01 -3.536125000e+01  5.637290000e-01  4.380710000e-01 -1.374250000e+00  1.548631541e+00  2.090720000e-01
-1.144168300e+01  2.542141200e+01 -3.668918000e+01  4.993170000e-01  4.034120000e-01 -1.242180000e+00  1.398238127e+00  1.898000000e-01
-1.181792600e+01  2.321035700e+01 -3.788655000e+01  4.410740000e-01  3.663570000e-01 -1.105550000e+00  1.245393322e+00  1.726420000e-01
-1.218482400e+01  2.091530600e+01 -3.895337300e+01  3.881760000e-01  3.283060000e-01 -9.653730000e-01  1.091059332e+00  1.575600000e-01
-1.253542600e+01  1.854625500e+01 -3.988625800e+01  3.395740000e-01  2.902550000e-01 -8.232580000e-01  9.366494547e-01  1.446800000e-01
-1.286893000e+01  1.611171500e+01 -4.068427800e+01  2.940700000e-01  2.527150000e-01 -6.812780000e-01  7.838888629e-01  1.342830000e-01
-1.318763200e+01  1.361667200e+01 -4.134390700e+01  2.503680000e-01  2.156720000e-01 -5.419070000e-01  6.347139069e-01  1.268010000e-01
-1.349488200e+01  1.106341600e+01 -4.186615300e+01  2.071180000e-01  1.784160000e-01 -4.081530000e-01  4.912423092e-01  1.227600000e-01
-1.378023000e+01  8.437409000e+00 -4.225611000e+01  1.627700000e-01  1.394090000e-01 -2.831100000e-01  3.550777581e-01  1.228940000e-01
-1.397892000e+01  5.699571000e+00 -4.253718900e+01  1.150800000e-01  9.557100000e-02 -1.701890000e-01  2.265866681e-01  1.297460000e-01
-1.392849110e+01  2.834247500e+00 -4.276383660e+01  5.650890000e-02  4.264750000e-02 -8.383660000e-02  1.097298525e-01  1.291420000e-01
-1.300333300e+01  2.912948400e+01 -3.344381000e+01  5.906670000e-01  4.614840000e-01 -1.531810000e+00  1.705372940e+00  2.432410000e-01
-1.336297300e+01  2.714982400e+01 -3.484636000e+01  5.220270000e-01  4.348240000e-01 -1.402360000e+00  1.558267522e+00  2.207520000e-01
-1.377553700e+01  2.505890500e+01 -3.611611000e+01  4.604630000e-01  4.029050000e-01 -1.268110000e+00  1.407999143e+00  2.005810000e-01
-1.419643400e+01  2.287183800e+01 -3.725820000e+01  4.055660000e-01  3.678380000e-01 -1.129200000e+00  1.254942714e+00  1.825730000e-01
-1.460546600e+01  2.059909900e+01 -3.827361000e+01  3.565340000e-01  3.310990000e-01 -9.866100000e-01  1.100064695e+00  1.667050000e-01
-1.498976500e+01  1.825172400e+01 -3.916090000e+01  3.122350000e-01  2.937240000e-01 -8.419000000e-01  9.447539856e-01  1.531330000e-01
-1.534768000e+01  1.583728600e+01 -3.991814500e+01  2.713200000e-01  2.562860000e-01 -6.971450000e-01  7.907643184e-01  1.421750000e-01
-1.567870700e+01  1.336081300e+01 -4.054386100e+01  2.322930000e-01  2.188130000e-01 -5.548610000e-01  6.400858506e-01  1.343020000e-01
-1.598247100e+01  1.082467500e+01 -4.103914700e+01  1.935290000e-01  1.806750000e-01 -4.181470000e-01  4.949180165e-01  1.300950000e-01
-1.624883400e+01  8.221401000e+00 -4.140844500e+01  1.531660000e-01  1.405010000e-01 -2.904450000e-01  3.571535420e-01  1.302650000e-01
-1.642624100e+01  5.530283000e+00 -4.167375100e+01  1.087590000e-01  9.568300000e-02 -1.757510000e-01  2.277546280e-01  1.370910000e-01
-1.639023320e+01  2.750398900e+00 -4.188887950e+01  5.276680000e-02  4.249890000e-02 -8.787950000e-02  1.109653018e-01  1.359690000e-01
-1.521299300e+01  2.863482400e+01 -3.290056000e+01  5.440070000e-01  4.508240000e-01 -1.557560000e+00  1.710315482e+00  2.560870000e-01
-1.560594600e+01  2.669117200e+01 -3.423737000e+01  4.780540000e-01  4.281720000e-01 -1.426370000e+00  1.564096629e+00  2.327880000e-01
-1.605750600e+01  2.463242600e+01 -3.544045000e+01  4.194940000e-01  3.994260000e-01 -1.290450000e+00  1.414488440e+00  2.118100000e-01
-1.651992100e+01  2.247482200e+01 -3.651983000e+01  3.680790000e-01  3.668220000e-01 -1.149830000e+00  1.261804089e+00  1.930170000e-01
-1.696495600e+01  2.023285100e+01 -3.747544000e+01  3.230440000e-01  3.318510000e-01 -1.005440000e+00  1.106974302e+00  1.763970000e-01
-1.737981100e+01  1.791461900e+01 -3.830979200e+01  2.831890000e-01  2.956190000e-01 -8.587920000e-01  9.513728513e-01  1.621320000e-01
-1.775895300e+01  1.552971200e+01 -3.902096800e+01  2.470470000e-01  2.587120000e-01 -7.119680000e-01  7.967826254e-01  1.505840000e-01
-1.810109100e+01  1.308322500e+01 -3.960850600e+01  2.129090000e-01  2.212250000e-01 -5.675060000e-01  6.452393377e-01  1.422840000e-01
-1.840411300e+01  1.057860800e+01 -4.007156600e+01  1.788870000e-01  1.826080000e-01 -4.285660000e-01  4.990140848e-01  1.378750000e-01
-1.866020200e+01  8.013338000e+00 -4.041679400e+01  1.427980000e-01  1.416380000e-01 -2.987940000e-01  3.601811298e-01  1.380180000e-01
-1.882801700e+01  5.378006000e+00 -4.066440400e+01  1.019830000e-01  9.610600000e-02 -1.824040000e-01  2.300176401e-01  1.447600000e-01
-1.881327060e+01  2.677095800e+00 -4.086340250e+01  4.872940000e-02  4.259580000e-02 -9.240250000e-02  1.128147978e-01  1.431650000e-01
-1.737571100e+01  2.806931700e+01 -3.227123000e+01  4.952890000e-01  4.363170000e-01 -1.578230000e+00  1.710699755e+00  2.690010000e-01
-1.779776700e+01  2.616597800e+01 -3.353491000e+01  4.322330000e-01  4.179780000e-01 -1.445910000e+00  1.565945945e+00  2.450630000e-01
-1.828416200e+01  2.414480600e+01 -3.466491000e+01  3.768380000e-01  3.928060000e-01 -1.308910000e+00  1.417585560e+00  2.234330000e-01
-1.878200100e+01  2.202406300e+01 -3.567224000e+01  3.289990000e-01  3.630630000e-01 -1.167240000e+00  1.265900589e+00  2.039790000e-01
-1.925999400e+01  1.981734000e+01 -3.656271000e+01  2.880060000e-01  3.303400000e-01 -1.021710000e+00  1.111738861e+00  1.866870000e-01
-1.970134200e+01  1.753669900e+01 -3.733683400e+01  2.526580000e-01  2.956990000e-01 -8.738340000e-01  9.564830491e-01  1.717580000e-01
-2.010065700e+01  1.519079300e+01 -3.799665500e+01  2.213430000e-01  2.597930000e-01 -7.256550000e-01  8.019104099e-01  1.595990000e-01
-2.045380100e+01  1.278373600e+01 -3.853972500e+01  1.921990000e-01  2.227360000e-01 -5.797250000e-01  6.501021896e-01  1.508260000e-01
-2.075993400e+01  1.032205100e+01 -3.896820500e+01  1.630660000e-01  1.840510000e-01 -4.392050000e-01  5.033550665e-01  1.461470000e-01
-2.101153500e+01  7.806545000e+00 -3.928481700e+01  1.314650000e-01  1.426450000e-01 -3.078170000e-01  3.638433011e-01  1.461820000e-01
-2.117648130e+01  5.232731200e+00 -3.951075600e+01  9.451870000e-02  9.663120000e-02 -1.897560000e-01  2.329779238e-01  1.527860000e-01
-2.118475760e+01  2.607310300e+00 -3.969221430e+01  4.424240000e-02  4.281030000e-02 -9.721430000e-02  1.150683791e-01  1.507810000e-01
-1.948710900e+01  2.743301000e+01 -3.155833000e+01  4.448910000e-01  4.180100000e-01 -1.593330000e+00  1.706271037e+00  2.817820000e-01
-1.993197300e+01  2.557719800e+01 -3.274257000e+01  3.850270000e-01  4.041980000e-01 -1.460570000e+00  1.563613296e+00  2.574740000e-01
-2.044905800e+01  2.359882500e+01 -3.379121000e+01  3.329420000e-01  3.828250000e-01 -1.323210000e+00  1.417141510e+00  2.354320000e-01
-2.097728500e+01  2.151935700e+01 -3.472014000e+01  2.887150000e-01  3.563570000e-01 -1.181140000e+00  1.267058942e+00  2.155300000e-01
-2.148422100e+01  1.935625100e+01 -3.553819000e+01  2.517790000e-01  3.262510000e-01 -1.035190000e+00  1.114204073e+00  1.977010000e-01
-2.194913900e+01  1.712068500e+01 -3.624677000e+01  2.208610000e-01  2.936850000e-01 -8.867700000e-01  9.598913967e-01  1.821320000e-01
-2.236665000e+01  1.482025600e+01 -3.684894600e+01  1.943500000e-01  2.592560000e-01 -7.379460000e-01  8.059465832e-01  1.693240000e-01
-2.273180700e+01  1.246309800e+01 -3.734322500e+01  1.701930000e-01  2.230980000e-01 -5.912250000e-01  6.544351576e-01  1.600050000e-01
-2.304298500e+01  1.005357900e+01 -3.773072400e+01  1.460150000e-01  1.847790000e-01 -4.497240000e-01  5.076567100e-01  1.549600000e-01
-2.329494700e+01  7.595211000e+00 -3.801712100e+01  1.190530000e-01  1.433110000e-01 -3.171210000e-01  3.678007452e-01  1.547900000e-01
-2.346177980e+01  5.087775400e+00 -3.821846800e+01  8.622020000e-02  9.707540000e-02 -1.974680000e-01  2.363285154e-01  1.611970000e-01
-2.349178650e+01  2.537445600e+00 -3.837813900e+01  3.921350000e-02  4.304560000e-02 -1.021390000e-01  1.175712447e-01  1.588600000e-01
-2.152738400e+01  2.673416200e+01 -3.077026000e+01  3.936160000e-01  3.961620000e-01 -1.602260000e+00  1.696795507e+00  2.942530000e-01
-2.199265000e+01  2.493679200e+01 -3.186257000e+01  3.373500000e-01  3.867920000e-01 -1.470570000e+00  1.557558730e+00  2.700000000e-01
-2.253630500e+01  2.300954600e+01 -3.282088000e+01  2.886950000e-01  3.695460000e-01 -1.333880000e+00  1.413911208e+00  2.480030000e-01
-2.309392400e+01  2.097950800e+01 -3.366431000e+01  2.480760000e-01  3.465080000e-01 -1.192310000e+00  1.266180332e+00  2.279840000e-01
-2.362706500e+01  1.886446400e+01 -3.440253000e+01  2.149350000e-01  3.194640000e-01 -1.046530000e+00  1.115114049e+00  2.097080000e-01
-2.411571700e+01  1.667842500e+01 -3.504117600e+01  1.882830000e-01  2.894250000e-01 -8.981760000e-01  9.622564345e-01  1.934690000e-01
-2.455060900e+01  1.443096300e+01 -3.558026200e+01  1.663910000e-01  2.569630000e-01 -7.492620000e-01  8.093883449e-01  1.799290000e-01
-2.492788900e+01  1.212918200e+01 -3.602127900e+01  1.471110000e-01  2.221820000e-01 -6.022790000e-01  6.585943222e-01  1.699410000e-01
-2.524614700e+01  9.778076000e+00 -3.636423700e+01  1.278530000e-01  1.846760000e-01 -4.602370000e-01  5.121227497e-01  1.643840000e-01
-2.550139000e+01  7.382638000e+00 -3.661569400e+01  1.056100000e-01  1.435380000e-01 -3.266940000e-01  3.721365330e-01  1.638790000e-01
-2.567390640e+01  4.944465200e+00 -3.678947600e+01  7.709360000e-02  9.736520000e-02 -2.054760000e-01  2.400912158e-01  1.700160000e-01
-2.572433220e+01  2.468782100e+00 -3.692614600e+01  3.366780000e-02  4.328210000e-02 -1.071460000e-01  1.203624786e-01  1.674340000e-01
-2.342785600e+01  2.602558300e+01 -2.992303000e+01  3.441440000e-01  3.715830000e-01 -1.607030000e+00  1.684949388e+00  3.063080000e-01
-2.392409100e+01  2.431573100e+01 -3.089158000e+01  2.919090000e-01  3.667310000e-01 -1.479580000e+00  1.552050085e+00  2.831180000e-01
-2.450558000e+01  2.245229000e+01 -3.174268000e+01  2.464200000e-01  3.532900000e-01 -1.345680000e+00  1.412937119e+00  2.619740000e-01
-2.509850100e+01  2.047407600e+01 -3.249320000e+01  2.084990000e-01  3.340760000e-01 -1.205200000e+00  1.267906009e+00  2.420160000e-01
-2.566342000e+01  1.840746600e+01 -3.314890000e+01  1.785800000e-01  3.104660000e-01 -1.059900000e+00  1.118779676e+00  2.232240000e-01
-2.617836700e+01  1.627037700e+01 -3.371264700e+01  1.556330000e-01  2.833770000e-01 -9.116470000e-01  9.672767998e-01  2.061810000e-01
-2.663502500e+01  1.407330700e+01 -3.418761900e+01  1.379750000e-01  2.533070000e-01 -7.626190000e-01  8.153461081e-01  1.917170000e-01
-2.702769200e+01  1.182331900e+01 -3.457326700e+01  1.233080000e-01  2.203190000e-01 -6.152670000e-01  6.650554909e-01  1.808310000e-01
-2.735714200e+01  9.528915000e+00 -3.487149400e+01  1.088580000e-01  1.840150000e-01 -4.724940000e-01  5.186156230e-01  1.745280000e-01
-2.761962810e+01  7.193042000e+00 -3.508469400e+01  9.137190000e-02  1.435420000e-01 -3.376940000e-01  3.781406716e-01  1.734910000e-01
-2.780165250e+01  4.819164900e+00 -3.522944300e+01  6.734750000e-02  9.766490000e-02 -2.144430000e-01  2.450712523e-01  1.792510000e-01
-2.787223630e+01  2.409501700e+00 -3.534046000e+01  2.776370000e-02  4.360170000e-02 -1.124600000e-01  1.237706867e-01  1.765260000e-01
-2.507022000e+01  2.545154000e+01 -2.901816000e+01  3.027800000e-01  3.465400000e-01 -1.615160000e+00  1.679436669e+00  3.192270000e-01
-2.564424400e+01  2.385708300e+01 -2.980786000e+01  2.537560000e-01  3.440830000e-01 -1.497860000e+00  1.557680904e+00  2.989120000e-01
-2.629713100e+01  2.205967100e+01 -3.053062000e+01  2.088690000e-01  3.346710000e-01 -1.367620000e+00  1.423381678e+00  2.788980000e-01
-2.694893400e+01  2.012465500e+01 -3.118223000e+01  1.720660000e-01  3.196550000e-01 -1.228230000e+00  1.280755621e+00  2.587750000e-01
-2.756009000e+01  1.809291100e+01 -3.175669000e+01  1.439100000e-01  2.999110000e-01 -1.082690000e+00  1.132640425e+00  2.392110000e-01
-2.811335500e+01  1.598821100e+01 -3.225059500e+01  1.236450000e-01  2.762110000e-01 -9.335950000e-01  9.814174578e-01  2.210140000e-01
-2.860051300e+01  1.382593400e+01 -3.266432900e+01  1.094870000e-01  2.489340000e-01 -7.833290000e-01  8.291922948e-01  2.052110000e-01
-2.901899230e+01  1.161310600e+01 -3.299638200e+01  9.900770000e-02  2.181060000e-01 -6.343820000e-01  6.780953280e-01  1.929850000e-01
-2.936680550e+01  9.356714000e+00 -3.324957200e+01  8.919450000e-02  1.833140000e-01 -4.895720000e-01  5.303210580e-01  1.855220000e-01
-2.964249340e+01  7.062640000e+00 -3.342714000e+01  7.650660000e-02  1.437400000e-01 -3.521400000e-01  3.879652395e-01  1.836370000e-01
-2.983482370e+01  4.732731900e+00 -3.354139700e+01  5.717630000e-02  9.823190000e-02 -2.253970000e-01  2.524330467e-01  1.888770000e-01
-2.992538590e+01  2.368069600e+00 -3.362643100e+01  2.161410000e-02  4.406960000e-02 -1.184310000e-01  1.281998468e-01  1.861270000e-01
-2.635509000e+01  2.520026500e+01 -2.803614000e+01  2.769100000e-01  3.192650000e-01 -1.642140000e+00  1.695651222e+00  3.348340000e-01
-2.710328800e+01  2.370117200e+01 -2.857819000e+01  2.257120000e-01  3.181720000e-01 -1.535190000e+00  1.583978429e+00  3.181070000e-01
-2.788083400e+01  2.193908300e+01 -2.915704000e+01  1.781660000e-01  3.130830000e-01 -1.408040000e+00  1.453389394e+00  2.990680000e-01
-2.862148600e+01  2.001774300e+01 -2.971319000e+01  1.395140000e-01  3.027430000e-01 -1.268190000e+00  1.311267843e+00  2.787180000e-01
-2.930096700e+01  1.799354200e+01 -3.021365000e+01  1.110330000e-01  2.875420000e-01 -1.120650000e+00  1.162267246e+00  2.581350000e-01
-2.990908410e+01  1.589683100e+01 -3.064581900e+01  9.191590000e-02  2.678310000e-01 -9.688190000e-01  1.009352382e+00  2.384150000e-01
-3.043970090e+01  1.374089600e+01 -3.100432700e+01  8.029910000e-02  2.438960000e-01 -8.153270000e-01  8.548048439e-01  2.208070000e-01
-3.089247380e+01  1.153768700e+01 -3.128869000e+01  7.352620000e-02  2.156870000e-01 -6.626900000e-01  7.007745858e-01  2.067140000e-01
-3.126571250e+01  9.291581000e+00 -3.150065600e+01  6.828750000e-02  1.827810000e-01 -5.136560000e-01  5.494675268e-01  1.975630000e-01
-3.156037520e+01  7.009517000e+00 -3.164437400e+01  6.062480000e-02  1.443170000e-01 -3.713740000e-01  4.030153976e-01  1.944020000e-01
-3.176660820e+01  4.693951300e+00 -3.173201500e+01  4.639180000e-02  9.925130000e-02 -2.390150000e-01  2.629281078e-01  1.988870000e-01
-3.187472870e+01  2.347569100e+00 -3.179129200e+01  1.527130000e-02  4.476910000e-02 -1.252920000e-01  1.339237476e-01  1.962220000e-01
-4.490185560e+01  2.703385580e+00 -2.937071000e+00 -6.485560000e-02 -8.514420000e-03 -2.332710000e-01  2.422686600e-01  3.550400000e-01
-4.473436100e+01  5.351211400e+00 -3.140582000e+00 -1.423610000e-01 -6.448860000e-02 -4.532820000e-01  4.794684613e-01  4.004760000e-01
-4.437917500e+01  7.940897000e+00 -3.343290000e+00 -1.951750000e-01 -1.606030000e-01 -6.773900000e-01  7.230102464e-01  4.633400000e-01
-4.382156400e+01  1.046009500e+01 -3.553499000e+00 -2.065640000e-01 -2.989050000e-01 -9.148990000e-01  9.844049295e-01  5.283060000e-01
-4.304913300e+01  1.290110100e+01 -3.773710000e+00 -1.631330000e-01 -4.768990000e-01 -1.168510000e+00  1.272580313e+00  5.880960000e-01
-4.206029190e+01  1.525384300e+01 -4.005720000e+00 -5.929190000e-02 -6.951570000e-01 -1.440220000e+00  1.600310105e+00  6.384620000e-01
-4.085497100e+01  1.750808800e+01 -4.249910000e+00  1.070290000e-01 -9.529120000e-01 -1.730310000e+00  1.978249019e+00  6.764520000e-01
-3.944045700e+01  1.965707000e+01 -4.505390000e+00  3.335430000e-01 -1.246930000e+00 -2.037790000e+00  2.412192663e+00  7.004590000e-01
-3.782662100e+01  2.169952000e+01 -4.769260000e+00  6.143790000e-01 -1.569480000e+00 -2.359460000e+00  2.899617305e+00  7.100290000e-01
-3.602977200e+01  2.364078000e+01 -5.037490000e+00  9.402280000e-01 -1.907220000e+00 -2.689090000e+00  3.428224300e+00  7.060980000e-01
-3.406767000e+01  2.549105000e+01 -5.307440000e+00  1.298330000e+00 -2.239950000e+00 -3.016040000e+00  3.974862774e+00  6.910140000e-01
-3.196183000e+01  2.726999000e+01 -5.576680000e+00  1.672170000e+00 -2.541010000e+00 -3.323780000e+00  4.505596278e+00  6.687430000e-01
-4.465580550e+01  2.705345120e+00 -5.628960000e+00 -6.280550000e-02  6.345120000e-03 -2.301600000e-01  2.386596258e-01  3.380260000e-01
-4.448345300e+01  5.366331800e+00 -5.816238000e+00 -1.314530000e-01 -2.516820000e-02 -4.495380000e-01  4.690391699e-01  3.734760000e-01
-4.413541800e+01  7.974517900e+00 -5.997083000e+00 -1.854180000e-01 -9.328210000e-02 -6.724830000e-01  7.037860259e-01  4.305740000e-01
-4.359180600e+01  1.051864600e+01 -6.176456000e+00 -2.058060000e-01 -1.983540000e-01 -9.056560000e-01  9.496911126e-01  4.925730000e-01
-4.284323200e+01  1.299250100e+01 -6.355340000e+00 -1.792320000e-01 -3.374990000e-01 -1.150740000e+00  1.212531333e+00  5.520790000e-01
-4.188514860e+01  1.538333000e+01 -6.534370000e+00 -9.914860000e-02 -5.106700000e-01 -1.408670000e+00  1.501654242e+00  6.044280000e-01
-4.071945180e+01  1.768299200e+01 -6.713340000e+00  3.754820000e-02 -7.170080000e-01 -1.679140000e+00  1.826204118e+00  6.465460000e-01
-3.934917100e+01  1.988303600e+01 -6.891100000e+00  2.298290000e-01 -9.539640000e-01 -1.960800000e+00  2.192625213e+00  6.766190000e-01
-3.778684500e+01  2.197925000e+01 -7.065630000e+00  4.731550000e-01 -1.215750000e+00 -2.250730000e+00  2.601482126e+00  6.938120000e-01
-3.604357900e+01  2.397417000e+01 -7.236700000e+00  7.594210000e-01 -1.491830000e+00 -2.543600000e+00  3.045025117e+00  6.983460000e-01
-3.413865000e+01  2.587395000e+01 -7.412090000e+00  1.076350000e+00 -1.765050000e+00 -2.830190000e+00  3.504840405e+00  6.915040000e-01
-3.209206000e+01  2.769474000e+01 -7.604030000e+00  1.406940000e+00 -2.011260000e+00 -3.096230000e+00  3.951112143e+00  6.765260000e-01
-4.424675170e+01  2.697549800e+00 -8.300231000e+00 -5.875170000e-02  1.854980000e-02 -2.246310000e-01  2.329269059e-01  3.214580000e-01
-4.407029400e+01  5.361358840e+00 -8.470062000e+00 -1.172940000e-01  8.458840000e-03 -4.405620000e-01  4.559871821e-01  3.477940000e-01
-4.372802600e+01  7.977232500e+00 -8.628531000e+00 -1.700260000e-01 -3.476750000e-02 -6.603310000e-01  6.827551899e-01  3.971680000e-01
-4.320162700e+01  1.053584700e+01 -8.777254000e+00 -1.966270000e-01 -1.101530000e-01 -8.881540000e-01  9.163042007e-01  4.539990000e-01
-4.247905200e+01  1.302933600e+01 -8.915660000e+00 -1.840520000e-01 -2.146640000e-01 -1.124560000e+00  1.159564990e+00  5.109950000e-01
-4.155701900e+01  1.544719200e+01 -9.043360000e+00 -1.250190000e-01 -3.478080000e-01 -1.369660000e+00  1.418650299e+00  5.632080000e-01
-4.043456730e+01  1.777925400e+01 -9.159800000e+00 -1.556730000e-02 -5.087460000e-01 -1.622600000e+00  1.700557436e+00  6.075010000e-01
-3.911753400e+01  2.001738400e+01 -9.263710000e+00  1.444660000e-01 -6.956160000e-01 -1.881810000e+00  2.011457412e+00  6.419330000e-01
-3.761210100e+01  2.215481200e+01 -9.353930000e+00  3.518990000e-01 -9.041880000e-01 -2.144630000e+00  2.353896064e+00  6.654160000e-01
-3.593298300e+01  2.419070000e+01 -9.434720000e+00  6.000170000e-01 -1.126300000e+00 -2.406520000e+00  2.723951285e+00  6.776600000e-01
-3.409254200e+01  2.612969000e+01 -9.523940000e+00  8.774580000e-01 -1.347310000e+00 -2.659540000e+00  3.107785351e+00  6.791430000e-01
-3.211147000e+01  2.798260000e+01 -9.647830000e+00  1.167530000e+00 -1.545400000e+00 -2.891430000e+00  3.480194665e+00  6.724400000e-01
-4.367585510e+01  2.680547100e+00 -1.094241900e+01 -5.285510000e-02  2.834710000e-02 -2.174190000e-01  2.255398883e-01  3.058680000e-01
-4.349542200e+01  5.336663600e+00 -1.109340900e+01 -1.004220000e-01  3.626360000e-02 -4.274090000e-01  4.405429378e-01  3.245400000e-01
-4.316070100e+01  7.949645900e+00 -1.122933200e+01 -1.497010000e-01  1.444590000e-02 -6.423320000e-01  6.597040789e-01  3.652850000e-01
-4.265175600e+01  1.051086200e+01 -1.134786500e+01 -1.797560000e-01 -3.513800000e-02 -8.638650000e-01  8.830683081e-01  4.156650000e-01
-4.195811100e+01  1.301348100e+01 -1.144758000e+01 -1.781110000e-01 -1.095190000e-01 -1.091580000e+00  1.111424688e+00  4.686180000e-01
-4.107502300e+01  1.544510500e+01 -1.152581000e+01 -1.370230000e-01 -2.078950000e-01 -1.324810000e+00  1.348004885e+00  5.190730000e-01
-4.000186050e+01  1.779752700e+01 -1.158223000e+01 -5.186050000e-02 -3.294730000e-01 -1.562230000e+00  1.597436866e+00  5.638630000e-01
-3.874140950e+01  2.006104700e+01 -1.161682000e+01  7.859050000e-02 -4.729530000e-01 -1.802120000e+00  1.864804950e+00  6.009720000e-01
-3.730252200e+01  2.222760900e+01 -1.162791000e+01  2.524780000e-01 -6.353910000e-01 -2.042010000e+00  2.153432540e+00  6.291240000e-01
-3.569346500e+01  2.429349100e+01 -1.162461000e+01  4.645350000e-01 -8.105090000e-01 -2.278010000e+00  2.462122492e+00  6.476490000e-01
-3.392629100e+01  2.626016700e+01 -1.163496000e+01  7.047090000e-01 -9.858330000e-01 -2.503260000e+00  2.781149422e+00  6.563860000e-01
-3.201479900e+01  2.813311000e+01 -1.169817000e+01  9.572010000e-01 -1.141890000e+00 -2.707270000e+00  3.090219633e+00  6.572450000e-01
-4.294473860e+01  2.654738100e+00 -1.354470400e+01 -4.573860000e-02  3.583810000e-02 -2.087040000e-01  2.166419824e-01  2.912800000e-01
-4.276192510e+01  5.293043800e+00 -1.367664800e+01 -8.192510000e-02  5.844380000e-02 -4.106480000e-01  4.227992191e-01  3.039470000e-01
-4.243589000e+01  7.892426700e+00 -1.379014600e+01 -1.258900000e-01  5.452670000e-02 -6.191460000e-01  6.341634036e-01  3.359560000e-01
-4.194479200e+01  1.044580290e+01 -1.387852300e+01 -1.567920000e-01  2.680290000e-02 -8.335230000e-01  8.485650937e-01  3.791970000e-01
-4.128193100e+01  1.294404580e+01 -1.394051000e+01 -1.629310000e-01 -2.195420000e-02 -1.052510000e+00  1.065272640e+00  4.270200000e-01
-4.044138500e+01  1.537924430e+01 -1.397276000e+01 -1.363850000e-01 -9.075570000e-02 -1.274760000e+00  1.285243371e+00  4.743940000e-01
-3.942106010e+01  1.773913400e+01 -1.397359000e+01 -7.206010000e-02 -1.788660000e-01 -1.498590000e+00  1.510945959e+00  5.181560000e-01
-3.822386690e+01  2.001557600e+01 -1.394210000e+01  3.213310000e-02 -2.854240000e-01 -1.722100000e+00  1.745888830e+00  5.562420000e-01
-3.685746000e+01  2.219953000e+01 -1.388001000e+01  1.755400000e-01 -4.084700000e-01 -1.943010000e+00  1.993226001e+00  5.872660000e-01
-3.532564100e+01  2.428375500e+01 -1.379883000e+01  3.543590000e-01 -5.432450000e-01 -2.157830000e+00  2.253201220e+00  6.102770000e-01
-3.363796600e+01  2.626684600e+01 -1.373754000e+01  5.600340000e-01 -6.791540000e-01 -2.360540000e+00  2.519332715e+00  6.246060000e-01
-3.180083700e+01  2.815094800e+01 -1.374616000e+01  7.781630000e-01 -7.990520000e-01 -2.542160000e+00  2.776076227e+00  6.314960000e-01
-4.205679170e+01  2.620448500e+00 -1.609777500e+01 -3.779170000e-02  4.124850000e-02 -1.987750000e-01  2.064973413e-01  2.775740000e-01
-4.187365410e+01  5.231004500e+00 -1.621093700e+01 -6.265410000e-02  7.530450000e-02 -3.909370000e-01  4.030236245e-01  2.858200000e-01
-4.155585600e+01  7.806516100e+00 -1.630058800e+01 -9.985600000e-02  8.591610000e-02 -5.915880000e-01  6.060768588e-01  3.095360000e-01
-4.108631400e+01  1.034023090e+01 -1.636094300e+01 -1.293140000e-01  7.623090000e-02 -7.979430000e-01  8.119398327e-01  3.454210000e-01
-4.045526100e+01  1.282476200e+01 -1.638606000e+01 -1.402610000e-01  4.876200000e-02 -1.008060000e+00  1.018938587e+00  3.874240000e-01
-3.965885100e+01  1.524960166e+01 -1.637304000e+01 -1.248510000e-01  4.601660000e-03 -1.220040000e+00  1.226420217e+00  4.307360000e-01
-3.869573980e+01  1.760542840e+01 -1.632186000e+01 -7.773980000e-02 -5.557160000e-02 -1.431860000e+00  1.435045204e+00  4.722320000e-01
-3.756717012e+01  1.988278900e+01 -1.623052000e+01  3.829880000e-03 -1.312110000e-01 -1.641520000e+00  1.646760124e+00  5.098290000e-01
-3.627777500e+01  2.207292200e+01 -1.609978000e+01  1.202250000e-01 -2.210780000e-01 -1.846780000e+00  1.863847070e+00  5.420840000e-01
-3.483198200e+01  2.416639000e+01 -1.594847000e+01  2.690180000e-01 -3.216100000e-01 -2.044470000e+00  2.087022103e+00  5.678680000e-01
-3.322871100e+01  2.615609500e+01 -1.582111000e+01  4.432890000e-01 -4.239050000e-01 -2.229110000e+00  2.311954147e+00  5.861250000e-01
-3.147066800e+01  2.803890400e+01 -1.578286000e+01  6.303320000e-01 -5.130960000e-01 -2.392860000e+00  2.527125821e+00  5.974200000e-01
-4.101544940e+01  2.577906200e+00 -1.859289500e+01 -2.944940000e-02  4.480620000e-02 -1.878950000e-01  1.953954804e-01  2.645970000e-01
-4.083439720e+01  5.151254000e+00 -1.868491600e+01 -4.339720000e-02  8.735400000e-02 -3.689160000e-01  3.815927847e-01  2.698370000e-01
-4.052686320e+01  7.693130000e+00 -1.875144200e+01 -7.286320000e-02  1.093300000e-01 -5.604420000e-01  5.756364566e-01  2.861170000e-01
-4.007899110e+01  1.019711200e+01 -1.878293500e+01 -9.899110000e-02  1.141120000e-01 -7.579350000e-01  7.728429664e-01  3.148350000e-01
-3.948307700e+01  1.265589500e+01 -1.877293900e+01 -1.120770000e-01  1.038950000e-01 -9.589390000e-01  9.710403857e-01  3.506970000e-01
-3.873456800e+01  1.506082260e+01 -1.871910000e+01 -1.045680000e-01  7.982260000e-02 -1.161100000e+00  1.168528701e+00  3.892970000e-01
-3.783208020e+01  1.740052160e+01 -1.861915000e+01 -7.108020000e-02  4.252160000e-02 -1.362150000e+00  1.364665931e+00  4.276000000e-01
-3.677640158e+01  1.966732939e+01 -1.847197000e+01 -8.401580000e-03 -7.670610000e-03 -1.559970000e+00  1.560011483e+00  4.635280000e-01
-3.557034540e+01  2.185199100e+01 -1.828035000e+01  8.465460000e-02 -7.000900000e-02 -1.752350000e+00  1.755789903e+00  4.956140000e-01
-3.421412400e+01  2.394413400e+01 -1.806322000e+01  2.068760000e-01 -1.418660000e-01 -1.936220000e+00  1.952401478e+00  5.226390000e-01
-3.270098800e+01  2.593114100e+01 -1.787747000e+01  3.530120000e-01 -2.158590000e-01 -2.106470000e+00  2.146725050e+00  5.432790000e-01
-3.102875000e+01  2.780462300e+01 -1.779605000e+01  5.122500000e-01 -2.793770000e-01 -2.256050000e+00  2.330281780e+00  5.574480000e-01
-3.982607180e+01  2.527677200e+00 -2.101934200e+01 -2.107180000e-02  4.677720000e-02 -1.763420000e-01  1.836535547e-01  2.522050000e-01
-3.964881550e+01  5.054977400e+00 -2.109022700e+01 -2.481550000e-02  9.517740000e-02 -3.452270000e-01  3.589654970e-01  2.556120000e-01
-3.935503520e+01  7.553664000e+00 -2.113353500e+01 -4.603520000e-02  1.256640000e-01 -5.265350000e-01  5.432768970e-01  2.655760000e-01
-3.893141220e+01  1.001826300e+01 -2.113636600e+01 -6.741220000e-02  1.416630000e-01 -7.143660000e-01  7.313901778e-01  2.876640000e-01
-3.837238300e+01  1.244104700e+01 -2.109290200e+01 -8.038300000e-02  1.450470000e-01 -9.059020000e-01  9.209552066e-01  3.174180000e-01
-3.767386870e+01  1.481396400e+01 -2.100046000e+01 -7.786870000e-02  1.369640000e-01 -1.098460000e+00  1.109701331e+00  3.509910000e-01
-3.683563540e+01  1.712799300e+01 -2.085560000e+01 -5.463540000e-02  1.179930000e-01 -1.289600000e+00  1.296138702e+00  3.855010000e-01
-3.585621581e+01  1.937436200e+01 -2.065811000e+01 -7.215810000e-03  8.836200000e-02 -1.477110000e+00  1.479768179e+00  4.189040000e-01
-3.473783300e+01  2.154447950e+01 -2.040975000e+01  6.616700000e-02  4.847950000e-02 -1.658750000e+00  1.660776895e+00  4.497330000e-01
-3.347764500e+01  2.362528904e+01 -2.013547000e+01  1.653550000e-01  2.890410000e-04 -1.831470000e+00  1.838919444e+00  4.767390000e-01
-3.206132200e+01  2.559976260e+01 -1.989725000e+01  2.866780000e-01 -5.023740000e-02 -1.990250000e+00  2.011418190e+00  4.984640000e-01
-3.047667200e+01  2.745337580e+01 -1.977853000e+01  4.213280000e-01 -9.262420000e-02 -2.128530000e+00  2.171804892e+00  5.142110000e-01
-3.849295820e+01  2.470532700e+00 -2.336841000e+01 -1.295820000e-02  4.743270000e-02 -1.644100000e-01  1.716054314e-01  2.402850000e-01
-3.832244964e+01  4.943931300e+00 -2.341754500e+01 -7.449640000e-03  9.943130000e-02 -3.205450000e-01  3.356950664e-01  2.427650000e-01
-3.804435810e+01  7.391533000e+00 -2.343680700e+01 -2.035810000e-02  1.359330000e-01 -4.908070000e-01  5.096898508e-01  2.476640000e-01
-3.764804330e+01  9.808084000e+00 -2.341131700e+01 -3.604330000e-02  1.602840000e-01 -6.683170000e-01  6.882134063e-01  2.639360000e-01
-3.712910800e+01  1.218604100e+01 -2.333604300e+01 -4.710800000e-02  1.740410000e-01 -8.500430000e-01  8.689548522e-01  2.879500000e-01
-3.648408630e+01  1.451831200e+01 -2.320709000e+01 -4.708630000e-02  1.783120000e-01 -1.033090000e+00  1.049422335e+00  3.165130000e-01
-3.571203640e+01  1.679765600e+01 -2.302091000e+01 -3.103640000e-02  1.736560000e-01 -1.214910000e+00  1.227650591e+00  3.469700000e-01
-3.481344127e+01  1.901324000e+01 -2.277722000e+01  4.558730000e-03  1.602400000e-01 -1.393220000e+00  1.402412068e+00  3.773380000e-01
-3.378711510e+01  2.115929900e+01 -2.247878000e+01  6.188490000e-02  1.382990000e-01 -1.565780000e+00  1.573093564e+00  4.061650000e-01
-3.262642100e+01  2.322021600e+01 -2.215338000e+01  1.415790000e-01  1.092160000e-01 -1.729380000e+00  1.738599417e+00  4.322090000e-01
-3.131052900e+01  2.517479170e+01 -2.186895000e+01  2.414710000e-01  7.779170000e-02 -1.878950000e+00  1.895999181e+00  4.539720000e-01
-2.981934000e+01  2.699848690e+01 -2.171708000e+01  3.546600000e-01  5.248690000e-02 -2.008080000e+00  2.039834277e+00  4.702650000e-01
-3.702231304e+01  2.410705700e+00 -2.563058400e+01 -5.313040000e-03  4.710570000e-02 -1.525840000e-01  1.597781350e-01  2.287470000e-01
-3.686370793e+01  4.828029000e+00 -2.565597600e+01  8.292070000e-03  1.009290000e-01 -2.959760000e-01  3.128213772e-01  2.309360000e-01
-3.660364896e+01  7.221995000e+00 -2.564895600e+01  3.351040000e-03  1.413950000e-01 -4.549560000e-01  4.764333505e-01  2.320350000e-01
-3.623620236e+01  9.587352000e+00 -2.559597700e+01 -6.202360000e-03  1.716520000e-01 -6.219770000e-01  6.452582947e-01  2.435100000e-01
-3.575804550e+01  1.191699400e+01 -2.548990100e+01 -1.404550000e-02  1.929940000e-01 -7.939010000e-01  8.171430462e-01  2.624650000e-01
-3.516740100e+01  1.420446800e+01 -2.532471200e+01 -1.440100000e-02  2.064680000e-01 -9.677120000e-01  9.895973619e-01  2.863780000e-01
-3.446372405e+01  1.644261500e+01 -2.509981000e+01 -2.724050000e-03  2.126150000e-01 -1.140810000e+00  1.160456813e+00  3.128820000e-01
-3.364459120e+01  1.862358500e+01 -2.481290000e+01  2.440880000e-02  2.115850000e-01 -1.310900000e+00  1.328089911e+00  3.400850000e-01
-3.271165560e+01  2.073850100e+01 -2.446865000e+01  6.934440000e-02  2.035010000e-01 -1.475650000e+00  1.491229099e+00  3.665390000e-01
-3.165265700e+01  2.277240300e+01 -2.409573000e+01  1.333430000e-01  1.894030000e-01 -1.631730000e+00  1.648088786e+00  3.910170000e-01
-3.044076200e+01  2.469598700e+01 -2.376958000e+01  2.152380000e-01  1.729870000e-01 -1.773580000e+00  1.794947886e+00  4.120050000e-01
-2.905843100e+01  2.646980400e+01 -2.358254000e+01  3.095690000e-01  1.608040000e-01 -1.894540000e+00  1.926388513e+00  4.280240000e-01
-3.542417202e+01  2.361459600e+00 -2.779374600e+01  1.827980000e-03  4.625960000e-02 -1.417460000e-01  1.491147901e-01  2.175430000e-01
-3.528070990e+01  4.733478000e+00 -2.779145500e+01  2.229010000e-02  1.007780000e-01 -2.734550000e-01  2.922852902e-01  2.198050000e-01
-3.504141530e+01  7.083585000e+00 -2.775800000e+01  2.458470000e-02  1.436850000e-01 -4.220000000e-01  4.464681251e-01  2.182630000e-01
-3.470187760e+01  9.405914000e+00 -2.767435000e+01  2.112240000e-02  1.779140000e-01 -5.793500000e-01  6.064206211e-01  2.260540000e-01
-3.426266540e+01  1.169358400e+01 -2.753529400e+01  1.733460000e-02  2.045840000e-01 -7.422940000e-01  7.701658807e-01  2.408660000e-01
-3.372367790e+01  1.394167800e+01 -2.733375000e+01  1.832210000e-02  2.246780000e-01 -9.077500000e-01  9.353213167e-01  2.607790000e-01
-3.308280020e+01  1.614170600e+01 -2.706810000e+01  2.819980000e-02  2.387060000e-01 -1.073100000e+00  1.099690590e+00  2.837460000e-01
-3.234082720e+01  1.828881100e+01 -2.673802000e+01  5.017280000e-02  2.468110000e-01 -1.236020000e+00  1.261419209e+00  3.080020000e-01
-3.149642000e+01  2.037102500e+01 -2.634709000e+01  8.658000000e-02  2.490250000e-01 -1.394090000e+00  1.418801070e+00  3.320850000e-01
-3.053721700e+01  2.236808700e+01 -2.592845000e+01  1.387830000e-01  2.460870000e-01 -1.543450000e+00  1.569094463e+00  3.547290000e-01
-2.944393100e+01  2.423861900e+01 -2.555226000e+01  2.060690000e-01  2.406190000e-01 -1.678260000e+00  1.707898874e+00  3.745380000e-01
-2.821361000e+01  2.592601100e+01 -2.530740000e+01  2.833900000e-01  2.370110000e-01 -1.791400000e+00  1.829097610e+00  3.897590000e-01
-3.370833495e+01  2.342633000e+00 -2.984587500e+01  8.665050000e-03  4.543300000e-02 -1.328750000e-01  1.406947270e-01  2.067080000e-01
-3.358612990e+01  4.696360000e+00 -2.981006900e+01  3.487010000e-02  1.001600000e-01 -2.550690000e-01  2.762392880e-01  2.091860000e-01
-3.336657040e+01  7.026132000e+00 -2.974524100e+01  4.342960000e-02  1.445320000e-01 -3.952410000e-01  4.230733710e-01  2.058710000e-01
-3.305234810e+01  9.325910000e+00 -2.962983500e+01  4.565190000e-02  1.814100000e-01 -5.448350000e-01  5.760545645e-01  2.109440000e-01
-3.264671120e+01  1.158982700e+01 -2.945358300e+01  4.628880000e-02  2.118270000e-01 -7.005830000e-01  7.333688505e-01  2.225020000e-01
-3.215113990e+01  1.381269100e+01 -2.921133900e+01  4.986010000e-02  2.366910000e-01 -8.593390000e-01  8.927329813e-01  2.391270000e-01
-3.156493360e+01  1.598747700e+01 -2.890042000e+01  6.006640000e-02  2.564770000e-01 -1.018420000e+00  1.051935226e+00  2.590960000e-01
-3.089016090e+01  1.810726400e+01 -2.852041000e+01  7.983910000e-02  2.712640000e-01 -1.175410000e+00  1.208944626e+00  2.808060000e-01
-3.012770400e+01  2.015598600e+01 -2.807858000e+01  1.112960000e-01  2.809860000e-01 -1.327580000e+00  1.361546396e+00  3.028400000e-01
-2.927255100e+01  2.210577100e+01 -2.760286000e+01  1.554490000e-01  2.857710000e-01 -1.470860000e+00  1.506405854e+00  3.238870000e-01
-2.832695100e+01  2.390204100e+01 -2.715124000e+01  2.110490000e-01  2.870410000e-01 -1.599240000e+00  1.638445237e+00  3.427410000e-01
-2.731216700e+01  2.547073700e+01 -2.680293000e+01  2.738330000e-01  2.877370000e-01 -1.705930000e+00  1.751563375e+00  3.576640000e-01
 3.902645780e+01  2.705199300e+00 -3.882689370e+01  9.145780000e-02 -5.760070000e-02 -7.889370000e-02  1.338154913e-01  1.438300000e-01
 3.663563880e+01  2.737834000e+00 -4.108908360e+01  8.963880000e-02 -5.786600000e-02 -8.208360000e-02  1.346153996e-01  1.435330000e-01
 3.411830120e+01  2.800315400e+00 -4.319966350e+01  8.830120000e-02 -5.878460000e-02 -8.566350000e-02  1.363486940e-01  1.430850000e-01
 3.148312940e+01  2.876117500e+00 -4.515241280e+01  8.712940000e-02 -5.988250000e-02 -8.941280000e-02  1.384633343e-01  1.425520000e-01
 2.873895560e+01  2.956015800e+00 -4.694312100e+01  8.595560000e-02 -6.098420000e-02 -9.312100000e-02  1.406376851e-01  1.420250000e-01
 2.589974940e+01  3.036003500e+00 -4.856372130e+01  8.474940000e-02 -6.199650000e-02 -9.672130000e-02  1.427621683e-01  1.415660000e-01
 2.297756820e+01  3.116074600e+00 -5.000822100e+01  8.356820000e-02 -6.292540000e-02 -1.002210000e-01  1.448706280e-01  1.412080000e-01
 1.998954640e+01  3.199564200e+00 -5.127071700e+01  8.254640000e-02 -6.383580000e-02 -1.037170000e-01  1.471262506e-01  1.409610000e-01
 1.695493750e+01  3.296280600e+00 -5.234746500e+01  8.193750000e-02 -6.491940000e-02 -1.074650000e-01  1.499233425e-01  1.408140000e-01
 1.390411110e+01  3.424295200e+00 -5.323191300e+01  8.211110000e-02 -6.650480000e-02 -1.119130000e-01  1.539143942e-01  1.407620000e-01
 1.086055730e+01  3.608451900e+00 -5.392565600e+01  8.355730000e-02 -6.904810000e-02 -1.176560000e-01  1.599762383e-01  1.408790000e-01
 7.767244400e+00  3.882187300e+00 -5.444258300e+01  8.674440000e-02 -7.341270000e-02 -1.255830000e-01  1.693667776e-01  1.417490000e-01
 4.314845800e+00  4.152969200e+00 -5.480876600e+01  8.974580000e-02 -7.643080000e-02 -1.347660000e-01  1.790470624e-01  1.438160000e-01
 3.897539800e+01  5.411638000e+00 -3.867920100e+01  1.463980000e-01 -1.231620000e-01 -1.212010000e-01  2.264750208e-01  1.399980000e-01
 3.661129100e+01  5.480889000e+00 -4.091577800e+01  1.452910000e-01 -1.239110000e-01 -1.257780000e-01  2.286558897e-01  1.395960000e-01
 3.412248900e+01  5.607405000e+00 -4.300047800e+01  1.454890000e-01 -1.255950000e-01 -1.314780000e-01  2.328682409e-01  1.389830000e-01
 3.151530200e+01  5.761373000e+00 -4.492977000e+01  1.463020000e-01 -1.276270000e-01 -1.377700000e-01  2.380619651e-01  1.382980000e-01
 2.880232500e+01  5.925273000e+00 -4.669839400e+01  1.473250000e-01 -1.296270000e-01 -1.443940000e-01  2.436338277e-01  1.376560000e-01
 2.599342700e+01  6.091331000e+00 -4.830020600e+01  1.484270000e-01 -1.314690000e-01 -1.512060000e-01  2.493550215e-01  1.371310000e-01
 2.310465100e+01  6.259157000e+00 -4.972825300e+01  1.496510000e-01 -1.331430000e-01 -1.582530000e-01  2.552772850e-01  1.367510000e-01
 2.015017900e+01  6.435136000e+00 -5.097775600e+01  1.511790000e-01 -1.347640000e-01 -1.657560000e-01  2.617087642e-01  1.365130000e-01
 1.714935900e+01  6.633930000e+00 -5.204219900e+01  1.533590000e-01 -1.365700000e-01 -1.741990000e-01  2.692872804e-01  1.363920000e-01
 1.411971000e+01  6.878524000e+00 -5.291737100e+01  1.567100000e-01 -1.388760000e-01 -1.843710000e-01  2.789932492e-01  1.363750000e-01
 1.105963900e+01  7.191762000e+00 -5.360518000e+01  1.616390000e-01 -1.419380000e-01 -1.971800000e-01  2.918107513e-01  1.365980000e-01
 7.835558000e+00  7.545133000e+00 -5.412963900e+01  1.675580000e-01 -1.448670000e-01 -2.126390000e-01  3.070463733e-01  1.376610000e-01
 4.154278000e+00  7.629796000e+00 -5.452351900e+01  1.670780000e-01 -1.433040000e-01 -2.215190000e-01  3.122847448e-01  1.409140000e-01
 3.881433600e+01  8.127242000e+00 -3.847533200e+01  2.183360000e-01 -1.695580000e-01 -1.803320000e-01  3.300608345e-01  1.178520000e-01
 3.647753300e+01  8.234332000e+00 -4.067962300e+01  2.175330000e-01 -1.703680000e-01 -1.876230000e-01  3.339884005e-01  1.175030000e-01
 3.401285600e+01  8.423901000e+00 -4.273000000e+01  2.188560000e-01 -1.720990000e-01 -1.970000000e-01  3.410645313e-01  1.168220000e-01
 3.142817000e+01  8.654395000e+00 -4.462765000e+01  2.211700000e-01 -1.741050000e-01 -2.076500000e-01  3.497817068e-01  1.160510000e-01
 2.873576300e+01  8.899510000e+00 -4.636803100e+01  2.237630000e-01 -1.759900000e-01 -2.190310000e-01  3.591892805e-01  1.153860000e-01
 2.594532900e+01  9.147125000e+00 -4.794388600e+01  2.263290000e-01 -1.775750000e-01 -2.308860000e-01  3.688713080e-01  1.149300000e-01
 2.307184000e+01  9.394666000e+00 -4.935122300e+01  2.288400000e-01 -1.788340000e-01 -2.432230000e-01  3.788228780e-01  1.147170000e-01
 2.012644400e+01  9.646983000e+00 -5.058128100e+01  2.314440000e-01 -1.798170000e-01 -2.562810000e-01  3.893333143e-01  1.147460000e-01
 1.712246100e+01  9.916363000e+00 -5.163058000e+01  2.344610000e-01 -1.806370000e-01 -2.705800000e-01  4.010177336e-01  1.149950000e-01
 1.406825000e+01  1.021762300e+01 -5.249383200e+01  2.382500000e-01 -1.813770000e-01 -2.868320000e-01  4.146483750e-01  1.154680000e-01
 1.094395100e+01  1.055809200e+01 -5.317467400e+01  2.429510000e-01 -1.819080000e-01 -3.056740000e-01  4.307578242e-01  1.163090000e-01
 7.627752000e+00  1.085873800e+01 -5.369784800e+01  2.463520000e-01 -1.812620000e-01 -3.248480000e-01  4.461742302e-01  1.181300000e-01
 3.965601000e+00  1.079056000e+01 -5.409920000e+01  2.404010000e-01 -1.774400000e-01 -3.332000000e-01  4.475486950e-01  1.221330000e-01
 3.855085000e+01  1.083348900e+01 -3.819649900e+01  2.998500000e-01 -2.025110000e-01 -2.484990000e-01  4.389447353e-01  1.020640000e-01
 3.624400200e+01  1.097699000e+01 -4.035817800e+01  2.990020000e-01 -2.030100000e-01 -2.591780000e-01  4.447341810e-01  1.018640000e-01
 3.380418000e+01  1.122681000e+01 -4.236696700e+01  3.011800000e-01 -2.041900000e-01 -2.729670000e-01  4.548779304e-01  1.013560000e-01
 3.124169500e+01  1.152956000e+01 -4.422269600e+01  3.046950000e-01 -2.054400000e-01 -2.886960000e-01  4.673221769e-01  1.007970000e-01
 2.856746600e+01  1.184959400e+01 -4.592453800e+01  3.084660000e-01 -2.064060000e-01 -3.055380000e-01  4.807371209e-01  1.004260000e-01
 2.579398300e+01  1.217007400e+01 -4.746604400e+01  3.119830000e-01 -2.069260000e-01 -3.230440000e-01  4.944787030e-01  1.003600000e-01
 2.293209300e+01  1.248505300e+01 -4.884310800e+01  3.150930000e-01 -2.069470000e-01 -3.411080000e-01  5.083948536e-01  1.006440000e-01
 1.999186700e+01  1.279451800e+01 -5.004787500e+01  3.178670000e-01 -2.064820000e-01 -3.598750000e-01  5.226703183e-01  1.012890000e-01
 1.698249700e+01  1.310646200e+01 -5.107670000e+01  3.204970000e-01 -2.055380000e-01 -3.797000000e-01  5.377139448e-01  1.022930000e-01
 1.390820700e+01  1.342690200e+01 -5.192409600e+01  3.232070000e-01 -2.040980000e-01 -4.010960000e-01  5.540728830e-01  1.036750000e-01
 1.074772400e+01  1.375004200e+01 -5.259409200e+01  3.257240000e-01 -2.019580000e-01 -4.240920000e-01  5.716092917e-01  1.055820000e-01
 7.418107000e+00  1.398413800e+01 -5.311080600e+01  3.254070000e-01 -1.988620000e-01 -4.458060000e-01  5.866675382e-01  1.084410000e-01
 3.857574000e+00  1.385737000e+01 -5.351129100e+01  3.155740000e-01 -1.946300000e-01 -4.552910000e-01  5.871606944e-01  1.126730000e-01
 3.819391900e+01  1.352247500e+01 -3.783181000e+01  3.889190000e-01 -2.215250000e-01 -3.238100000e-01  5.524348199e-01  8.916380000e-02
 3.592071400e+01  1.369959300e+01 -3.994416300e+01  3.877140000e-01 -2.214070000e-01 -3.381630000e-01  5.600869754e-01  8.920860000e-02
 3.350840500e+01  1.400449000e+01 -4.189965700e+01  3.904050000e-01 -2.215100000e-01 -3.566570000e-01  5.733122707e-01  8.903790000e-02
 3.097074500e+01  1.437362400e+01 -4.370372900e+01  3.947450000e-01 -2.213760000e-01 -3.777290000e-01  5.894999117e-01  8.891010000e-02
 2.831826600e+01  1.476223700e+01 -4.535623500e+01  3.992660000e-01 -2.207630000e-01 -4.002350000e-01  6.069083095e-01  8.906180000e-02
 2.556422500e+01  1.514743300e+01 -4.685350900e+01  4.032250000e-01 -2.195670000e-01 -4.235090000e-01  6.246278422e-01  8.960150000e-02
 2.271934100e+01  1.551823800e+01 -4.819128900e+01  4.063410000e-01 -2.177620000e-01 -4.472890000e-01  6.423400551e-01  9.056800000e-02
 1.979157900e+01  1.587265900e+01 -4.936357500e+01  4.085790000e-01 -2.153410000e-01 -4.715750000e-01  6.600693343e-01  9.196760000e-02
 1.678902700e+01  1.621270100e+01 -5.036556200e+01  4.100270000e-01 -2.122990000e-01 -4.965620000e-01  6.780610784e-01  9.379250000e-02
 1.371374800e+01  1.653842500e+01 -5.119349100e+01  4.107480000e-01 -2.085750000e-01 -5.224910000e-01  6.965732519e-01  9.605460000e-02
 1.055227700e+01  1.683686100e+01 -5.184918900e+01  4.102770000e-01 -2.041390000e-01 -5.491890000e-01  7.152681356e-01  9.884180000e-02
 7.255490000e+00  1.702681600e+01 -5.235562700e+01  4.061900000e-01 -1.991840000e-01 -5.736270000e-01  7.305563066e-01  1.023210000e-01
 3.805105000e+00  1.689831300e+01 -5.275182500e+01  3.931050000e-01 -1.946870000e-01 -5.868250000e-01  7.326651006e-01  1.065930000e-01
 3.774347000e+01  1.618396100e+01 -3.737921000e+01  4.824700000e-01 -2.280390000e-01 -4.032100000e-01  6.688478082e-01  8.026060000e-02
 3.550867600e+01  1.638990000e+01 -3.943224300e+01  4.806760000e-01 -2.271000000e-01 -4.212430000e-01  6.782842266e-01  8.059520000e-02
 3.312962100e+01  1.674524500e+01 -4.132438200e+01  4.836210000e-01 -2.257550000e-01 -4.443820000e-01  6.944997866e-01  8.088520000e-02
 3.062150200e+01  1.717520700e+01 -4.306469000e+01  4.885020000e-01 -2.237930000e-01 -4.706900000e-01  7.143294667e-01  8.134870000e-02
 2.799747400e+01  1.762585200e+01 -4.465770800e+01  4.934740000e-01 -2.211480000e-01 -4.987080000e-01  7.356172210e-01  8.217340000e-02
 2.526956500e+01  1.806818100e+01 -4.610156300e+01  4.975650000e-01 -2.178190000e-01 -5.275630000e-01  7.571913661e-01  8.343300000e-02
 2.244935800e+01  1.848917400e+01 -4.739083400e+01  5.003580000e-01 -2.138260000e-01 -5.568340000e-01  7.785523682e-01  8.514430000e-02
 1.954472600e+01  1.888080600e+01 -4.852340200e+01  5.017260000e-01 -2.091940000e-01 -5.864020000e-01  7.995989084e-01  8.729730000e-02
 1.656366000e+01  1.924308300e+01 -4.949230100e+01  5.016600000e-01 -2.039170000e-01 -6.163010000e-01  8.204095447e-01  8.987520000e-02
 1.350911700e+01  1.957300300e+01 -5.029464600e+01  5.001170000e-01 -1.979970000e-01 -6.466460000e-01  8.411128789e-01  9.287600000e-02
 1.037322700e+01  1.985551000e+01 -5.093208900e+01  4.966270000e-01 -1.914900000e-01 -6.770890000e-01  8.612527568e-01  9.631770000e-02
 7.131260000e+00  2.002408200e+01 -5.142402500e+01  4.890600000e-01 -1.849180000e-01 -7.050250000e-01  8.777440407e-01  1.002250000e-01
 3.782979000e+00  1.991725800e+01 -5.181315000e+01  4.732790000e-01 -1.797420000e-01 -7.231500000e-01  8.827491835e-01  1.045070000e-01
 3.720221100e+01  1.880651500e+01 -3.683745600e+01  5.782110000e-01 -2.234850000e-01 -4.844560000e-01  7.867471777e-01  7.525610000e-02
 3.501271600e+01  1.903840600e+01 -3.882198100e+01  5.757160000e-01 -2.215940000e-01 -5.059810000e-01  7.978531104e-01  7.588880000e-02
 3.267274600e+01  1.943944100e+01 -4.063949600e+01  5.787460000e-01 -2.185590000e-01 -5.334960000e-01  8.169044932e-01  7.669420000e-02
 3.019899300e+01  1.992352000e+01 -4.230672200e+01  5.839930000e-01 -2.144800000e-01 -5.647220000e-01  8.402145153e-01  7.781110000e-02
 2.760925400e+01  2.043049400e+01 -4.382892400e+01  5.892540000e-01 -2.095060000e-01 -5.979240000e-01  8.652318477e-01  7.934440000e-02
 2.491534100e+01  2.092623700e+01 -4.520703700e+01  5.933410000e-01 -2.037630000e-01 -6.320370000e-01  8.905299949e-01  8.131780000e-02
 2.212970700e+01  2.139065400e+01 -4.644051500e+01  5.957070000e-01 -1.973460000e-01 -6.665150000e-01  9.154531767e-01  8.372060000e-02
 1.926013800e+01  2.181768900e+01 -4.752312500e+01  5.961380000e-01 -1.903110000e-01 -7.011250000e-01  9.397739395e-01  8.652880000e-02
 1.631454700e+01  2.220130200e+01 -4.845281300e+01  5.945470000e-01 -1.826980000e-01 -7.358130000e-01  9.634757212e-01  8.971850000e-02
 1.329684700e+01  2.253846600e+01 -4.922356500e+01  5.908470000e-01 -1.745340000e-01 -7.705650000e-01  9.865762585e-01  9.327020000e-02
 1.020556500e+01  2.281603800e+01 -4.983802100e+01  5.845650000e-01 -1.659620000e-01 -8.050210000e-01  1.008622048e+00  9.716560000e-02
 7.029673000e+00  2.297837500e+01 -5.031497800e+01  5.739730000e-01 -1.576250000e-01 -8.369780000e-01  1.027045675e+00  1.013460000e-01
 3.775619000e+00  2.290184000e+01 -5.069261300e+01  5.557190000e-01 -1.511600000e-01 -8.606130000e-01  1.035532563e+00  1.056380000e-01
 3.656937700e+01  2.138253300e+01 -3.620783900e+01  6.743770000e-01 -2.094670000e-01 -5.658390000e-01  9.048947652e-01  7.382480000e-02
 3.443318600e+01  2.163745400e+01 -3.811356700e+01  6.711860000e-01 -2.065460000e-01 -5.905670000e-01  9.175626835e-01  7.472690000e-02
 3.213824200e+01  2.207832500e+01 -3.984707200e+01  6.742420000e-01 -2.016750000e-01 -6.220720000e-01  9.392809236e-01  7.603030000e-02
 2.970678500e+01  2.261170400e+01 -4.142879200e+01  6.797850000e-01 -1.952960000e-01 -6.577920000e-01  9.658874102e-01  7.776700000e-02
 2.715829800e+01  2.316920500e+01 -4.286975300e+01  6.852980000e-01 -1.877950000e-01 -6.957530000e-01  9.944709889e-01  7.994720000e-02
 2.450638600e+01  2.371155700e+01 -4.417373700e+01  6.893860000e-01 -1.794430000e-01 -7.347370000e-01  1.023372516e+00  8.254420000e-02
 2.176338200e+01  2.421758800e+01 -4.534108300e+01  6.913820000e-01 -1.704120000e-01 -7.740830000e-01  1.051786010e+00  8.552460000e-02
 1.893898900e+01  2.467618900e+01 -4.636648000e+01  6.909890000e-01 -1.608110000e-01 -8.134800000e-01  1.079386718e+00  8.885570000e-02
 1.604106000e+01  2.508329200e+01 -4.724878800e+01  6.880600000e-01 -1.507080000e-01 -8.527880000e-01  1.106068189e+00  9.250830000e-02
 1.307346000e+01  2.543183000e+01 -4.798292400e+01  6.824600000e-01 -1.401700000e-01 -8.919240000e-01  1.131780766e+00  9.645720000e-02
 1.004067500e+01  2.571162600e+01 -4.856950600e+01  6.737750000e-01 -1.293740000e-01 -9.305060000e-01  1.156093335e+00  1.006630000e-01
 6.938054000e+00  2.587899300e+01 -4.902572700e+01  6.605540000e-01 -1.190070000e-01 -9.667270000e-01  1.176883743e+00  1.050310000e-01
 3.774459000e+00  2.583527600e+01 -4.938991400e+01  6.400590000e-01 -1.107240000e-01 -9.959140000e-01  1.189024820e+00  1.093620000e-01
 3.584568800e+01  2.390051100e+01 -3.549516400e+01  7.696880000e-01 -1.874890000e-01 -6.461640000e-01  1.022301158e+00  7.527610000e-02
 3.377195900e+01  2.417552600e+01 -3.730976900e+01  7.659590000e-01 -1.834740000e-01 -6.737690000e-01  1.036494363e+00  7.640750000e-02
 3.153008600e+01  2.465332800e+01 -3.894783200e+01  7.690860000e-01 -1.766720000e-01 -7.088320000e-01  1.060730444e+00  7.815000000e-02
 2.914695700e+01  2.523112500e+01 -4.043456600e+01  7.749570000e-01 -1.678750000e-01 -7.485660000e-01  1.090454687e+00  8.041770000e-02
 2.664576900e+01  2.583329100e+01 -4.178381700e+01  7.807690000e-01 -1.577090000e-01 -7.908170000e-01  1.122436585e+00  8.313700000e-02
 2.404295600e+01  2.641840600e+01 -4.300422400e+01  7.849560000e-01 -1.465940000e-01 -8.342240000e-01  1.154805354e+00  8.624250000e-02
 2.135272900e+01  2.696220900e+01 -4.409604500e+01  7.867290000e-01 -1.347910000e-01 -8.780450000e-01  1.186623005e+00  8.968350000e-02
 1.858271400e+01  2.745254400e+01 -4.505689100e+01  7.857140000e-01 -1.224560000e-01 -9.218910000e-01  1.217466623e+00  9.342040000e-02
 1.574170700e+01  2.788130800e+01 -4.588456000e+01  7.817070000e-01 -1.096920000e-01 -9.655600000e-01  1.247158483e+00  9.742300000e-02
 1.283654500e+01  2.824540730e+01 -4.657490000e+01  7.745450000e-01 -9.659270000e-02 -1.008900000e+00  1.275589792e+00  1.016630000e-01
 9.871739000e+00  2.853363920e+01 -4.712852000e+01  7.638390000e-01 -8.336080000e-02 -1.051520000e+00  1.302341488e+00  1.060940000e-01
 6.848189000e+00  2.871032550e+01 -4.756193000e+01  7.483890000e-01 -7.067450000e-02 -1.091930000e+00  1.325666664e+00  1.106090000e-01
 3.774573000e+00  2.869986270e+01 -4.790838000e+01  7.258730000e-01 -6.013730000e-02 -1.126380000e+00  1.341357526e+00  1.150090000e-01
 3.503276900e+01  2.633793700e+01 -3.471430400e+01  8.627690000e-01 -1.590630000e-01 -7.243040000e-01  1.137667645e+00  7.875200000e-02
 3.303881200e+01  2.663310000e+01 -3.641831200e+01  8.588120000e-01 -1.539000000e-01 -7.543120000e-01  1.153355910e+00  8.007950000e-02
 3.086226300e+01  2.714490200e+01 -3.794443200e+01  8.622630000e-01 -1.450980000e-01 -7.924320000e-01  1.180042112e+00  8.219480000e-02
 2.853766200e+01  2.776321700e+01 -3.932171100e+01  8.686620000e-01 -1.337830000e-01 -8.357110000e-01  1.212800246e+00  8.489640000e-02
 2.609197700e+01  2.840817600e+01 -4.057078300e+01  8.749770000e-01 -1.208240000e-01 -8.817830000e-01  1.248088318e+00  8.805840000e-02
 2.354447000e+01  2.903319400e+01 -4.169818300e+01  8.794700000e-01 -1.068060000e-01 -9.291830000e-01  1.283844247e+00  9.158300000e-02
 2.091225500e+01  2.961192800e+01 -4.270706600e+01  8.812550000e-01 -9.207200000e-02 -9.770660000e-01  1.318994161e+00  9.540210000e-02
 1.820388500e+01  3.013216840e+01 -4.359598000e+01  8.798850000e-01 -7.683160000e-02 -1.024980000e+00  1.353027978e+00  9.947130000e-02
 1.542810900e+01  3.058577720e+01 -4.436166000e+01  8.751090000e-01 -6.122280000e-02 -1.072660000e+00  1.385699631e+00  1.037590000e-01
 1.259173100e+01  3.096763280e+01 -4.500289000e+01  8.667310000e-01 -4.536720000e-02 -1.119890000e+00  1.416839589e+00  1.082390000e-01
 9.702093000e+00  3.126751160e+01 -4.551927000e+01  8.543930000e-01 -2.948840000e-02 -1.166270000e+00  1.446043802e+00  1.128570000e-01
 6.761276000e+00  3.145976170e+01 -4.592455000e+01  8.370760000e-01 -1.423830000e-02 -1.210550000e+00  1.471845869e+00  1.175180000e-01
 3.777398000e+00  3.148086799e+01 -4.625069000e+01  8.127980000e-01 -1.132010000e-03 -1.249690000e+00  1.490760533e+00  1.220240000e-01
 3.416833800e+01  2.861548900e+01 -3.389550200e+01  9.503380000e-01 -1.265110000e-01 -7.975020000e-01  1.247059256e+00  8.333120000e-02
 3.230401400e+01  2.893180800e+01 -3.543697200e+01  9.470140000e-01 -1.201920000e-01 -8.289720000e-01  1.264308590e+00  8.480770000e-02
 3.022379200e+01  2.948881800e+01 -3.681477600e+01  9.517920000e-01 -1.091820000e-01 -8.697760000e-01  1.293962523e+00  8.724730000e-02
 2.797055000e+01  3.015791170e+01 -3.806734700e+01  9.595500000e-01 -9.508830000e-02 -9.163470000e-01  1.330214198e+00  9.033930000e-02
 2.558298300e+01  3.085189490e+01 -3.920605100e+01  9.669830000e-01 -7.910510000e-02 -9.660510000e-01  1.369148741e+00  9.390780000e-02
 2.309127800e+01  3.152205260e+01 -4.023722000e+01  9.722780000e-01 -6.194740000e-02 -1.017220000e+00  1.408509325e+00  9.781730000e-02
 2.051350500e+01  3.214195040e+01 -4.115993000e+01  9.745050000e-01 -4.404960000e-02 -1.068930000e+00  1.447139146e+00  1.019870000e-01
 1.786418200e+01  3.269633260e+01 -4.197366000e+01  9.731820000e-01 -2.566740000e-02 -1.120660000e+00  1.484459786e+00  1.063690000e-01
 1.515002300e+01  3.317802128e+01 -4.267708000e+01  9.680230000e-01 -6.978720000e-03 -1.172080000e+00  1.520160767e+00  1.109330000e-01
 1.237981300e+01  3.358186110e+01 -4.326591000e+01  9.588130000e-01  1.186110000e-02 -1.222910000e+00  1.554017993e+00  1.156520000e-01
 9.561214000e+00  3.389960330e+01 -4.374172000e+01  9.452140000e-01  3.060330000e-02 -1.272720000e+00  1.585617314e+00  1.204720000e-01
 6.697070000e+00  3.410962640e+01 -4.411648000e+01  9.263700000e-01  4.862640000e-02 -1.320480000e+00  1.613751323e+00  1.253080000e-01
 3.792126000e+00  3.416353020e+01 -4.442072000e+01  9.005260000e-01  6.453020000e-02 -1.363720000e+00  1.635494868e+00  1.299710000e-01
 3.337072000e+01  3.055664650e+01 -3.309876900e+01  1.025720000e+00 -9.435350000e-02 -8.597690000e-01  1.341717867e+00  8.800690000e-02
 3.173920000e+01  3.093767420e+01 -3.434789800e+01  1.026200000e+00 -8.632580000e-02 -8.918980000e-01  1.362358479e+00  8.962120000e-02
 2.978822000e+01  3.158982290e+01 -3.551571600e+01  1.035220000e+00 -7.217710000e-02 -9.357160000e-01  1.397302549e+00  9.250980000e-02
 2.760418000e+01  3.234535910e+01 -3.662209100e+01  1.046180000e+00 -5.464090000e-02 -9.860910000e-01  1.438698607e+00  9.609100000e-02
 2.526293000e+01  3.311190090e+01 -3.764975000e+01  1.055930000e+00 -3.509910000e-02 -1.039750000e+00  1.482329307e+00  1.001180000e-01
 2.280990000e+01  3.384463330e+01 -3.858689000e+01  1.062900000e+00 -1.436670000e-02 -1.094890000e+00  1.526023238e+00  1.044470000e-01
 2.026924000e+01  3.451709394e+01 -3.942954000e+01  1.066240000e+00  7.093940000e-03 -1.150540000e+00  1.568649213e+00  1.089980000e-01
 1.765853000e+01  3.511699090e+01 -4.017414000e+01  1.065530000e+00  2.899090000e-02 -1.206140000e+00  1.609648518e+00  1.137280000e-01
 1.498646000e+01  3.563610750e+01 -4.081828000e+01  1.060460000e+00  5.110750000e-02 -1.261280000e+00  1.648640236e+00  1.186060000e-01
 1.226181000e+01  3.607124450e+01 -4.135863000e+01  1.050810000e+00  7.324450000e-02 -1.315630000e+00  1.685363080e+00  1.236040000e-01
 9.491880000e+00  3.641511370e+01 -4.179672000e+01  1.036280000e+00  9.511370000e-02 -1.368720000e+00  1.719394455e+00  1.286660000e-01
 6.679910000e+00  3.664811600e+01 -4.214164000e+01  1.016110000e+00  1.161160000e-01 -1.419640000e+00  1.749668594e+00  1.337210000e-01
 3.828973000e+00  3.673494900e+01 -4.242242000e+01  9.887730000e-01  1.349490000e-01 -1.466420000e+00  1.773773067e+00  1.385740000e-01
 3.282432000e+01  3.186645400e+01 -3.247942500e+01  1.077320000e+00 -7.054600000e-02 -9.014250000e-01  1.406471525e+00  9.139540000e-02
 3.156224000e+01  3.252835370e+01 -3.310564400e+01  1.093240000e+00 -5.664630000e-02 -9.366440000e-01  1.440723597e+00  9.380530000e-02
 2.972481000e+01  3.338883840e+01 -3.398587200e+01  1.111810000e+00 -3.716160000e-02 -9.858720000e-01  1.486420553e+00  9.747010000e-02
 2.757349000e+01  3.428606170e+01 -3.494036000e+01  1.128490000e+00 -1.493830000e-02 -1.041360000e+00  1.535624786e+00  1.016760000e-01
 2.524099000e+01  3.515792146e+01 -3.586774000e+01  1.141990000e+00  8.921460000e-03 -1.099740000e+00  1.585449091e+00  1.062290000e-01
 2.279161000e+01  3.597382890e+01 -3.672636000e+01  1.151610000e+00  3.382890000e-02 -1.159360000e+00  1.634461867e+00  1.110250000e-01
 2.025583000e+01  3.671737470e+01 -3.750130000e+01  1.156830000e+00  5.937470000e-02 -1.219300000e+00  1.681806616e+00  1.160060000e-01
 1.765130000e+01  3.737725930e+01 -3.818800000e+01  1.157300000e+00  8.525930000e-02 -1.279000000e+00  1.726978123e+00  1.211360000e-01
 1.498675000e+01  3.794822100e+01 -3.878102000e+01  1.152750000e+00  1.112210000e-01 -1.338020000e+00  1.769604530e+00  1.263850000e-01
 1.227295000e+01  3.842499500e+01 -3.927992000e+01  1.142950000e+00  1.369950000e-01 -1.395920000e+00  1.809335508e+00  1.317200000e-01
 9.515790000e+00  3.880021600e+01 -3.968419000e+01  1.127590000e+00  1.622160000e-01 -1.452190000e+00  1.845705566e+00  1.370780000e-01
 6.720050000e+00  3.906128500e+01 -4.000498000e+01  1.106050000e+00  1.862850000e-01 -1.505980000e+00  1.877771143e+00  1.424100000e-01
 3.890900000e+00  3.918000100e+01 -4.026268000e+01  1.077100000e+00  2.080010000e-01 -1.555680000e+00  1.903562210e+00  1.475140000e-01
 3.970620000e+00  4.148320400e+01 -3.795576000e+01  1.164620000e+00  2.812040000e-01 -1.629760000e+00  2.022753839e+00  1.565110000e-01
 4.094430000e+00  4.365133800e+01 -3.548203000e+01  1.251830000e+00  3.523380000e-01 -1.687030000e+00  2.130091697e+00  1.653940000e-01
 4.238740000e+00  4.566500900e+01 -3.285995000e+01  1.337340000e+00  4.180090000e-01 -1.725950000e+00  2.223086414e+00  1.739070000e-01
 4.387870000e+00  4.750951000e+01 -3.009946000e+01  1.419770000e+00  4.745100000e-01 -1.745460000e+00  2.299464547e+00  1.817450000e-01
 4.532230000e+00  4.917063800e+01 -2.721303000e+01  1.497630000e+00  5.176380000e-01 -1.745030000e+00  2.357111456e+00  1.885660000e-01
 4.666150000e+00  5.063979400e+01 -2.421285000e+01  1.569350000e+00  5.427940000e-01 -1.724850000e+00  2.394283248e+00  1.939760000e-01
 4.785980000e+00  5.190320400e+01 -2.111213000e+01  1.633280000e+00  5.452040000e-01 -1.686130000e+00  2.409955464e+00  1.975250000e-01
 4.889240000e+00  5.295431400e+01 -1.792434000e+01  1.687840000e+00  5.203140000e-01 -1.631340000e+00  2.404329578e+00  1.987210000e-01
 4.974140000e+00  5.378230800e+01 -1.466635000e+01  1.731540000e+00  4.643080000e-01 -1.564350000e+00  2.379286366e+00  1.970840000e-01
 5.039000000e+00  5.438377800e+01 -1.135513000e+01  1.763200000e+00  3.747780000e-01 -1.490430000e+00  2.338955830e+00  1.922050000e-01
 5.082910000e+00  5.475437900e+01 -8.010160000e+00  1.782110000e+00  2.513790000e-01 -1.415960000e+00  2.289989121e+00  1.839700000e-01
 5.104490000e+00  5.489726690e+01 -4.650000000e+00  1.788090000e+00  9.626690000e-02 -1.347800000e+00  2.241226897e+00  1.726830000e-01
 6.809280000e+00  4.133494500e+01 -3.771796000e+01  1.195380000e+00  2.569450000e-01 -1.577960000e+00  1.996224396e+00  1.511070000e-01
 6.973760000e+00  4.347429700e+01 -3.526305000e+01  1.284660000e+00  3.262970000e-01 -1.634050000e+00  2.104029574e+00  1.597200000e-01
 7.177610000e+00  4.546267100e+01 -3.265617000e+01  1.372510000e+00  3.916710000e-01 -1.673170000e+00  2.199247081e+00  1.680500000e-01
 7.394100000e+00  4.728622200e+01 -2.991066000e+01  1.457500000e+00  4.502220000e-01 -1.694660000e+00  2.280104957e+00  1.758820000e-01
 7.606290000e+00  4.893372700e+01 -2.704018000e+01  1.538090000e+00  4.987270000e-01 -1.698180000e+00  2.344837901e+00  1.829640000e-01
 7.804180000e+00  5.039466600e+01 -2.405790000e+01  1.612680000e+00  5.336660000e-01 -1.683900000e+00  2.391872779e+00  1.890060000e-01
 7.982050000e+00  5.165839100e+01 -2.097573000e+01  1.679650000e+00  5.513910000e-01 -1.652730000e+00  2.420076984e+00  1.936830000e-01
 8.136280000e+00  5.271642800e+01 -1.780849000e+01  1.737380000e+00  5.484280000e-01 -1.606490000e+00  2.429006516e+00  1.966460000e-01
 8.264430000e+00  5.356287500e+01 -1.457309000e+01  1.784430000e+00  5.218750000e-01 -1.548090000e+00  2.419323581e+00  1.975660000e-01
 8.364740000e+00  5.419188300e+01 -1.128497000e+01  1.819640000e+00  4.698830000e-01 -1.481470000e+00  2.393038471e+00  1.961640000e-01
 8.435460000e+00  5.460113200e+01 -7.962800000e+00  1.842260000e+00  3.921320000e-01 -1.411400000e+00  2.353665094e+00  1.923630000e-01
 8.474720000e+00  5.479100100e+01 -4.622980000e+00  1.852220000e+00  2.900010000e-01 -1.342980000e+00  2.306168855e+00  1.863030000e-01
 9.624000000e+00  4.104600000e+01 -3.741578000e+01  1.218500000e+00  2.300000000e-01 -1.521780000e+00  1.963022317e+00  1.454540000e-01
 9.832740000e+00  4.315189200e+01 -3.498010000e+01  1.309340000e+00  2.968920000e-01 -1.576100000e+00  2.070412352e+00  1.537540000e-01
 1.009654000e+01  4.510689200e+01 -3.239060000e+01  1.398940000e+00  3.608920000e-01 -1.614600000e+00  2.166612406e+00  1.618330000e-01
 1.037963000e+01  4.690090600e+01 -2.966299000e+01  1.485930000e+00  4.199060000e-01 -1.636990000e+00  2.250343368e+00  1.695490000e-01
 1.065847000e+01  4.852254800e+01 -2.681215000e+01  1.568870000e+00  4.715480000e-01 -1.643150000e+00  2.320269923e+00  1.767250000e-01
 1.091944000e+01  4.996419600e+01 -2.385026000e+01  1.646240000e+00  5.131960000e-01 -1.633260000e+00  2.375081999e+00  1.831530000e-01
 1.115451000e+01  5.121712500e+01 -2.079101000e+01  1.716510000e+00  5.421250000e-01 -1.608010000e+00  2.413711303e+00  1.886060000e-01
 1.135927000e+01  5.227271600e+01 -1.764971000e+01  1.778170000e+00  5.557160000e-01 -1.568710000e+00  2.435479395e+00  1.928410000e-01
 1.153046000e+01  5.312478300e+01 -1.444150000e+01  1.829860000e+00  5.517830000e-01 -1.517500000e+00  2.440421756e+00  1.956360000e-01
 1.166613000e+01  5.376884200e+01 -1.118231000e+01  1.870430000e+00  5.288420000e-01 -1.457210000e+00  2.429329790e+00  1.967710000e-01
 1.176435000e+01  5.420363900e+01 -7.888870000e+00  1.899250000e+00  4.866390000e-01 -1.391470000e+00  2.404195674e+00  1.961770000e-01
 1.182189000e+01  5.442874000e+01 -4.576170000e+00  1.915990000e+00  4.257400000e-01 -1.323770000e+00  2.367411929e+00  1.940280000e-01
 1.240479000e+01  4.063342600e+01 -3.703559000e+01  1.234790000e+00  2.014260000e-01 -1.462590000e+00  1.924694336e+00  1.397490000e-01
 1.266048000e+01  4.269719800e+01 -3.462149000e+01  1.326480000e+00  2.651980000e-01 -1.514490000e+00  2.030654852e+00  1.476950000e-01
 1.298404000e+01  4.460784000e+01 -3.205353000e+01  1.417040000e+00  3.268400000e-01 -1.551530000e+00  2.126516421e+00  1.554620000e-01
 1.333326000e+01  4.635987400e+01 -2.934777000e+01  1.505260000e+00  3.848740000e-01 -1.573770000e+00  2.211489922e+00  1.629600000e-01
 1.367684000e+01  4.794459400e+01 -2.652033000e+01  1.589840000e+00  4.375940000e-01 -1.581330000e+00  2.284662842e+00  1.700690000e-01
 1.399940000e+01  4.935610700e+01 -2.358441000e+01  1.669400000e+00  4.831070000e-01 -1.574410000e+00  2.345006521e+00  1.766490000e-01
 1.429056000e+01  5.058441500e+01 -2.055455000e+01  1.742560000e+00  5.194150000e-01 -1.553550000e+00  2.391615541e+00  1.825410000e-01
 1.454395000e+01  5.162458000e+01 -1.744469000e+01  1.807950000e+00  5.445800000e-01 -1.519690000e+00  2.423779750e+00  1.875760000e-01
 1.475633000e+01  5.247093600e+01 -1.426934000e+01  1.864330000e+00  5.569360000e-01 -1.474340000e+00  2.441225613e+00  1.916010000e-01
 1.492566000e+01  5.311931800e+01 -1.104576000e+01  1.910660000e+00  5.553180000e-01 -1.419560000e+00  2.444207501e+00  1.944280000e-01
 1.505025000e+01  5.356738700e+01 -7.788150000e+00  1.946250000e+00  5.393870000e-01 -1.357950000e+00  2.433691764e+00  1.960700000e-01
 1.512473000e+01  5.381627500e+01 -4.510260000e+00  1.970730000e+00  5.092750000e-01 -1.291960000e+00  2.410870880e+00  1.966760000e-01
 1.514464000e+01  4.010884000e+01 -3.657020000e+01  1.244640000e+00  1.718400000e-01 -1.401200000e+00  1.882025280e+00  1.340270000e-01
 1.544730000e+01  4.211689100e+01 -3.418405000e+01  1.336300000e+00  2.318910000e-01 -1.450050000e+00  1.985476298e+00  1.415680000e-01
 1.583087000e+01  4.397230900e+01 -3.164187000e+01  1.426870000e+00  2.903090000e-01 -1.484870000e+00  2.079681762e+00  1.489520000e-01
 1.624333000e+01  4.567010000e+01 -2.896305000e+01  1.515330000e+00  3.461000000e-01 -1.506050000e+00  2.164300539e+00  1.561300000e-01
 1.664954000e+01  4.720509800e+01 -2.616390000e+01  1.600540000e+00  3.980980000e-01 -1.513900000e+00  2.238772771e+00  1.630270000e-01
 1.703031000e+01  4.857298300e+01 -2.325872000e+01  1.681310000e+00  4.449830000e-01 -1.508720000e+00  2.302400752e+00  1.695510000e-01
 1.737443000e+01  4.976632800e+01 -2.026393000e+01  1.756430000e+00  4.853280000e-01 -1.490930000e+00  2.354455750e+00  1.755970000e-01
 1.767371000e+01  5.078071500e+01 -1.719120000e+01  1.824710000e+00  5.177150000e-01 -1.461200000e+00  2.394305921e+00  1.810480000e-01
 1.792504000e+01  5.160989500e+01 -1.405762000e+01  1.885040000e+00  5.408950000e-01 -1.420620000e+00  2.421591292e+00  1.857900000e-01
 1.812646000e+01  5.225091300e+01 -1.087580000e+01  1.936460000e+00  5.539130000e-01 -1.370600000e+00  2.436235067e+00  1.896900000e-01
 1.827432000e+01  5.270142800e+01 -7.661540000e+00  1.978320000e+00  5.564280000e-01 -1.313040000e+00  2.438736596e+00  1.928000000e-01
 1.836519000e+01  5.296424400e+01 -4.426650000e+00  2.010190000e+00  5.482440000e-01 -1.249550000e+00  2.429570028e+00  1.952060000e-01
 1.783539000e+01  3.947672700e+01 -3.601725000e+01  1.248390000e+00  1.417270000e-01 -1.338250000e+00  1.835613575e+00  1.283590000e-01
 1.818407000e+01  4.141858900e+01 -3.366455000e+01  1.339070000e+00  1.975890000e-01 -1.383550000e+00  1.935551725e+00  1.354560000e-01
 1.862565000e+01  4.320509700e+01 -3.115353000e+01  1.428650000e+00  2.520970000e-01 -1.415530000e+00  2.026898838e+00  1.424060000e-01
 1.909826000e+01  4.483563400e+01 -2.850589000e+01  1.516260000e+00  3.046340000e-01 -1.434890000e+00  2.109681392e+00  1.491850000e-01
 1.956494000e+01  4.630945200e+01 -2.574115000e+01  1.600940000e+00  3.544520000e-01 -1.442150000e+00  2.183676195e+00  1.557560000e-01
 2.000072000e+01  4.762267100e+01 -2.287368000e+01  1.681720000e+00  4.006710000e-01 -1.437680000e+00  2.248475748e+00  1.620670000e-01
 2.039357000e+01  4.876930300e+01 -1.991987000e+01  1.757570000e+00  4.423030000e-01 -1.421870000e+00  2.303562143e+00  1.680490000e-01
 2.073647000e+01  4.974633200e+01 -1.689222000e+01  1.827470000e+00  4.783320000e-01 -1.395220000e+00  2.348422226e+00  1.736180000e-01
 2.102346000e+01  5.054781900e+01 -1.380548000e+01  1.890460000e+00  5.078190000e-01 -1.358480000e+00  2.382684843e+00  1.786990000e-01
 2.125269000e+01  5.117200400e+01 -1.067383000e+01  1.945690000e+00  5.300040000e-01 -1.312630000e+00  2.406161120e+00  1.831920000e-01
 2.142255000e+01  5.161753200e+01 -7.510710000e+00  1.992550000e+00  5.445320000e-01 -1.259010000e+00  2.419065270e+00  1.871630000e-01
 2.152755000e+01  5.188403900e+01 -4.327170000e+00  2.030550000e+00  5.510390000e-01 -1.198670000e+00  2.421484473e+00  1.906540000e-01
 2.046829000e+01  3.874345900e+01 -3.537827000e+01  1.246290000e+00  1.114590000e-01 -1.274270000e+00  1.785896387e+00  1.227840000e-01
 2.086306000e+01  4.060579800e+01 -3.306462000e+01  1.335060000e+00  1.627980000e-01 -1.315620000e+00  1.881420840e+00  1.294090000e-01
 2.135862000e+01  4.231190000e+01 -3.058930000e+01  1.422620000e+00  2.129000000e-01 -1.344300000e+00  1.968836348e+00  1.358830000e-01
 2.188827000e+01  4.386343100e+01 -2.797828000e+01  1.508270000e+00  2.614310000e-01 -1.361280000e+00  2.048489150e+00  1.422050000e-01
 2.241024000e+01  4.526396500e+01 -2.525327000e+01  1.591240000e+00  3.079650000e-01 -1.367270000e+00  2.120451469e+00  1.483690000e-01
 2.289674000e+01  4.650995500e+01 -2.243074000e+01  1.670740000e+00  3.519550000e-01 -1.362740000e+00  2.184560546e+00  1.543500000e-01
 2.333494000e+01  4.759974100e+01 -1.952407000e+01  1.745940000e+00  3.927410000e-01 -1.348070000e+00  2.240500993e+00  1.601070000e-01
 2.371601000e+01  4.852961100e+01 -1.654865000e+01  1.816010000e+00  4.296110000e-01 -1.323650000e+00  2.287904555e+00  1.655840000e-01
 2.403613000e+01  4.929487600e+01 -1.351601000e+01  1.880130000e+00  4.618760000e-01 -1.290010000e+00  2.326444510e+00  1.707280000e-01
 2.429055000e+01  4.989292800e+01 -1.044222000e+01  1.937550000e+00  4.889280000e-01 -1.247820000e+00  2.355887379e+00  1.754630000e-01
 2.447873000e+01  5.032443800e+01 -7.337840000e+00  1.987730000e+00  5.104380000e-01 -1.198040000e+00  2.376324335e+00  1.798590000e-01
 2.459615000e+01  5.058896900e+01 -4.213710000e+00  2.030150000e+00  5.259690000e-01 -1.141310000e+00  2.387622442e+00  1.839250000e-01
 2.303462000e+01  3.791436660e+01 -3.465575000e+01  1.238620000e+00  8.136660000e-02 -1.209750000e+00  1.733290250e+00  1.173350000e-01
 2.347359000e+01  3.968495800e+01 -3.238585000e+01  1.324590000e+00  1.279580000e-01 -1.246850000e+00  1.823608193e+00  1.234660000e-01
 2.402114000e+01  4.129731900e+01 -2.995190000e+01  1.409140000e+00  1.733190000e-01 -1.271900000e+00  1.906159654e+00  1.294330000e-01
 2.460376000e+01  4.275833300e+01 -2.738411000e+01  1.491760000e+00  2.173330000e-01 -1.286110000e+00  1.981580294e+00  1.352580000e-01
 2.517485000e+01  4.407381400e+01 -2.470435000e+01  1.571850000e+00  2.598140000e-01 -1.290350000e+00  2.050175324e+00  1.409570000e-01
 2.570782000e+01  4.524345500e+01 -2.193121000e+01  1.648820000e+00  3.004550000e-01 -1.285210000e+00  2.112023992e+00  1.465290000e-01
 2.618702000e+01  4.626684400e+01 -1.907905000e+01  1.722020000e+00  3.388440000e-01 -1.271050000e+00  2.166964753e+00  1.519530000e-01
 2.660277000e+01  4.713949600e+01 -1.616223000e+01  1.790770000e+00  3.744960000e-01 -1.248230000e+00  2.214764678e+00  1.571910000e-01
 2.695041000e+01  4.785991400e+01 -1.319212000e+01  1.854410000e+00  4.069140000e-01 -1.217120000e+00  2.255171068e+00  1.622070000e-01
 2.722832000e+01  4.842562500e+01 -1.018311000e+01  1.912320000e+00  4.356250000e-01 -1.178210000e+00  2.287993821e+00  1.669430000e-01
 2.743200000e+01  4.883634000e+01 -7.145240000e+00  1.964000000e+00  4.603400000e-01 -1.132140000e+00  2.313212030e+00  1.714630000e-01
 2.755995000e+01  4.909262200e+01 -4.088200000e+00  2.008950000e+00  4.806220000e-01 -1.079300000e+00  2.330614962e+00  1.757580000e-01
 2.551971000e+01  3.699677530e+01 -3.385423000e+01  1.225710000e+00  5.177530000e-02 -1.145230000e+00  1.678272159e+00  1.120450000e-01
 2.600600000e+01  3.866145850e+01 -3.163279000e+01  1.308000000e+00  9.345850000e-02 -1.177790000e+00  1.762608231e+00  1.176560000e-01
 2.660262000e+01  4.016786100e+01 -2.924397000e+01  1.388620000e+00  1.338610000e-01 -1.198970000e+00  1.839487247e+00  1.230880000e-01
 2.723321000e+01  4.152704700e+01 -2.672315000e+01  1.467210000e+00  1.730470000e-01 -1.210150000e+00  1.909741729e+00  1.283830000e-01
 2.785037000e+01  4.274798600e+01 -2.409435000e+01  1.543370000e+00  2.109860000e-01 -1.212350000e+00  1.973904398e+00  1.335810000e-01
 2.842364000e+01  4.383055500e+01 -2.137822000e+01  1.616640000e+00  2.475550000e-01 -1.206220000e+00  2.032184799e+00  1.386970000e-01
 2.893756000e+01  4.477750800e+01 -1.858715000e+01  1.686560000e+00  2.825080000e-01 -1.192150000e+00  2.084590374e+00  1.437210000e-01
 2.938361000e+01  4.558553000e+01 -1.573647000e+01  1.752610000e+00  3.155300000e-01 -1.170470000e+00  2.131009389e+00  1.486280000e-01
 2.975627000e+01  4.625326900e+01 -1.283648000e+01  1.814270000e+00  3.462690000e-01 -1.141480000e+00  2.171279449e+00  1.533930000e-01
 3.005302000e+01  4.677937000e+01 -9.899000000e+00  1.871020000e+00  3.743700000e-01 -1.105500000e+00  2.205220848e+00  1.579730000e-01
 3.027146000e+01  4.716359200e+01 -6.934710000e+00  1.922460000e+00  3.995920000e-01 -1.063010000e+00  2.232827015e+00  1.624240000e-01
 3.040911000e+01  4.740553900e+01 -3.952310000e+00  1.968110000e+00  4.215390000e-01 -1.014210000e+00  2.253835403e+00  1.667200000e-01
 2.789877000e+01  3.599997660e+01 -3.299140000e+01  1.207770000e+00  2.297660000e-02 -1.081400000e+00  1.621314978e+00  1.069450000e-01
 2.843724000e+01  3.753748450e+01 -3.082701000e+01  1.285240000e+00  5.948450000e-02 -1.109010000e+00  1.698612211e+00  1.119890000e-01
 2.908392000e+01  3.892273950e+01 -2.849106000e+01  1.360920000e+00  9.473950000e-02 -1.126060000e+00  1.768923385e+00  1.168420000e-01
 2.976156000e+01  4.016789800e+01 -2.602208000e+01  1.434560000e+00  1.288980000e-01 -1.134080000e+00  1.833225173e+00  1.215810000e-01
 3.041884000e+01  4.128406100e+01 -2.345011000e+01  1.505840000e+00  1.620610000e-01 -1.134110000e+00  1.892094967e+00  1.262640000e-01
 3.102846000e+01  4.227317600e+01 -2.079480000e+01  1.574460000e+00  1.941760000e-01 -1.126800000e+00  1.945843480e+00  1.309050000e-01
 3.157406000e+01  4.313610700e+01 -1.806958000e+01  1.640060000e+00  2.251070000e-01 -1.112580000e+00  1.994568681e+00  1.354990000e-01
 3.204728000e+01  4.387365000e+01 -1.528975000e+01  1.702280000e+00  2.546500000e-01 -1.091750000e+00  2.038264429e+00  1.400280000e-01
 3.244170000e+01  4.448356400e+01 -1.246356000e+01  1.760700000e+00  2.825640000e-01 -1.064560000e+00  2.076823271e+00  1.444730000e-01
 3.275592000e+01  4.496458700e+01 -9.602860000e+00  1.814920000e+00  3.085870000e-01 -1.031260000e+00  2.110132160e+00  1.488050000e-01
 3.298761000e+01  4.531652800e+01 -6.716767000e+00  1.864610000e+00  3.325280000e-01 -9.921670000e-01  2.138162921e+00  1.530680000e-01
 3.313434000e+01  4.554004500e+01 -3.813508000e+00  1.909340000e+00  3.540450000e-01 -9.474080000e-01  2.160673278e+00  1.572270000e-01
 3.010492000e+01  3.491995320e+01 -3.214423000e+01  1.183920000e+00 -5.046800000e-03 -1.019230000e+00  1.562216960e+00  1.020700000e-01
 3.071158000e+01  3.628965930e+01 -3.006204000e+01  1.254580000e+00  2.565930000e-02 -1.041040000e+00  1.630458113e+00  1.064270000e-01
 3.141909000e+01  3.753142890e+01 -2.778970000e+01  1.324090000e+00  5.542890000e-02 -1.053700000e+00  1.693094912e+00  1.106310000e-01
 3.214897000e+01  3.865452660e+01 -2.537655000e+01  1.391970000e+00  8.452660000e-02 -1.058550000e+00  1.750786489e+00  1.148040000e-01
 3.285081000e+01  3.966191800e+01 -2.285945000e+01  1.457810000e+00  1.129180000e-01 -1.056450000e+00  1.803897745e+00  1.189780000e-01
 3.349724000e+01  4.055554700e+01 -2.026100000e+01  1.521240000e+00  1.405470000e-01 -1.048000000e+00  1.852627485e+00  1.231520000e-01
 3.407498000e+01  4.133530400e+01 -1.759858000e+01  1.581980000e+00  1.673040000e-01 -1.033580000e+00  1.897086968e+00  1.273160000e-01
 3.457472000e+01  4.200204400e+01 -1.488246000e+01  1.639720000e+00  1.930440000e-01 -1.013460000e+00  1.937278719e+00  1.314560000e-01
 3.499215000e+01  4.255259700e+01 -1.212485600e+01  1.694150000e+00  2.175970000e-01 -9.878560000e-01  1.973157914e+00  1.355590000e-01
 3.532396000e+01  4.298677300e+01 -9.334360000e+00  1.744960000e+00  2.407730000e-01 -9.569600000e-01  2.004651960e+00  1.396000000e-01
 3.556987000e+01  4.330542000e+01 -6.519813000e+00  1.791870000e+00  2.624200000e-01 -9.210130000e-01  2.031730125e+00  1.436150000e-01
 3.572656000e+01  4.350827700e+01 -3.685735000e+00  1.834560000e+00  2.822770000e-01 -8.800350000e-01  2.054203568e+00  1.475640000e-01
 3.202713000e+01  3.374044460e+01 -3.147395200e+01  1.152130000e+00 -3.255540000e-02 -9.599520000e-01  1.499990411e+00  9.741530000e-02
 3.274187000e+01  3.487205655e+01 -2.950940100e+01  1.212870000e+00 -8.943450000e-03 -9.744010000e-01  1.555824839e+00  1.008730000e-01
 3.354191000e+01  3.594712250e+01 -2.730225800e+01  1.274910000e+00  1.512250000e-02 -9.822580000e-01  1.609489042e+00  1.043840000e-01
 3.434270000e+01  3.694427030e+01 -2.493404800e+01  1.336700000e+00  3.927030000e-02 -9.840480000e-01  1.660319100e+00  1.079970000e-01
 3.510107000e+01  3.784916200e+01 -2.245508900e+01  1.397070000e+00  6.316200000e-02 -9.800890000e-01  1.707737823e+00  1.116820000e-01
 3.579540000e+01  3.865557670e+01 -1.989570100e+01  1.455400000e+00  8.657670000e-02 -9.707010000e-01  1.751555057e+00  1.154120000e-01
 3.641333000e+01  3.936036800e+01 -1.727316500e+01  1.511330000e+00  1.093680000e-01 -9.561650000e-01  1.791739723e+00  1.191680000e-01
 3.694657000e+01  3.996140800e+01 -1.459970300e+01  1.564570000e+00  1.314080000e-01 -9.367030000e-01  1.828266900e+00  1.229340000e-01
 3.739187000e+01  4.045856400e+01 -1.188650200e+01  1.614870000e+00  1.525640000e-01 -9.125020000e-01  1.861112783e+00  1.267000000e-01
 3.774698000e+01  4.085069400e+01 -9.141723000e+00  1.661980000e+00  1.726940000e-01 -8.837230000e-01  1.890229372e+00  1.304470000e-01
 3.800970000e+01  4.113769000e+01 -6.372233000e+00  1.705700000e+00  1.916900000e-01 -8.505330000e-01  1.915610589e+00  1.342010000e-01
 3.817875000e+01  4.131834800e+01 -3.581513000e+00  1.745750000e+00  2.093480000e-01 -8.129130000e-01  1.937084715e+00  1.379210000e-01
 3.355203000e+01  3.242972120e+01 -3.118566500e+01  1.110030000e+00 -6.027880000e-02 -9.046650000e-01  1.433254652e+00  9.288490000e-02
 3.446945000e+01  3.323829460e+01 -2.932599100e+01  1.157450000e+00 -4.470540000e-02 -9.089910000e-01  1.472397268e+00  9.527710000e-02
 3.541056000e+01  3.413371580e+01 -2.715264200e+01  1.211560000e+00 -2.628420000e-02 -9.116420000e-01  1.516462868e+00  9.808560000e-02
 3.631061000e+01  3.501536507e+01 -2.479471700e+01  1.267610000e+00 -6.634930000e-03 -9.107170000e-01  1.560860208e+00  1.011620000e-01
 3.714606000e+01  3.583325680e+01 -2.232131200e+01  1.323060000e+00  1.325680000e-02 -9.053120000e-01  1.603200962e+00  1.043980000e-01
 3.790380000e+01  3.656592870e+01 -1.976729700e+01  1.376800000e+00  3.292870000e-02 -8.952970000e-01  1.642625720e+00  1.077280000e-01
 3.857335000e+01  3.720716770e+01 -1.715080100e+01  1.428350000e+00  5.216770000e-02 -8.808010000e-01  1.678903092e+00  1.111170000e-01
 3.915143000e+01  3.775484150e+01 -1.448499600e+01  1.477430000e+00  7.084150000e-02 -8.619960000e-01  1.711974015e+00  1.145490000e-01
 3.963282000e+01  3.820683810e+01 -1.178104200e+01  1.523820000e+00  8.883810000e-02 -8.390420000e-01  1.741812584e+00  1.180110000e-01
 4.001730000e+01  3.856204600e+01 -9.044881000e+00  1.567300000e+00  1.060460000e-01 -8.120810000e-01  1.768375128e+00  1.214870000e-01
 4.030173000e+01  3.882037500e+01 -6.284651000e+00  1.607730000e+00  1.223750000e-01 -7.812510000e-01  1.791682036e+00  1.249890000e-01
 4.048583000e+01  3.898066300e+01 -3.504754000e+00  1.644830000e+00  1.376630000e-01 -7.465540000e-01  1.811562780e+00  1.284790000e-01
 4.264066000e+01  3.650403610e+01 -3.450678000e+00  1.533660000e+00  6.903610000e-02 -6.810780000e-01  1.679507732e+00  1.193670000e-01
 4.463847000e+01  3.389676801e+01 -3.433649000e+00  1.413470000e+00  4.768010000e-03 -6.167490000e-01  1.542173630e+00  1.107070000e-01
 4.647170000e+01  3.117015780e+01 -3.434638000e+00  1.285700000e+00 -5.384220000e-02 -5.534380000e-01  1.400791595e+00  1.027420000e-01
 4.813554000e+01  2.833342900e+01 -3.441518000e+00  1.151540000e+00 -1.055710000e-01 -4.911180000e-01  1.256338528e+00  9.583130000e-02
 4.962517000e+01  2.539892400e+01 -3.447641000e+00  1.012170000e+00 -1.490760000e-01 -4.298410000e-01  1.109718454e+00  9.050860000e-02
 5.093403000e+01  2.237922900e+01 -3.449922000e+00  8.690300000e-01 -1.827710000e-01 -3.697220000e-01  9.619317734e-01  8.752950000e-02
 5.205811200e+01  1.928722400e+01 -3.447022000e+00  7.241120000e-01 -2.047760000e-01 -3.109220000e-01  8.142136629e-01  8.784610000e-02
 5.299735700e+01  1.613810500e+01 -3.438285000e+00  5.803570000e-01 -2.128950000e-01 -2.536850000e-01  6.682025200e-01  9.233470000e-02
 5.374884700e+01  1.294502500e+01 -3.423865000e+00  4.418470000e-01 -2.049750000e-01 -1.982650000e-01  5.258826221e-01  1.017360000e-01
 5.431755600e+01  9.724023000e+00 -3.403862000e+00  3.145560000e-01 -1.785770000e-01 -1.451620000e-01  3.897527784e-01  1.151600000e-01
 5.470443100e+01  6.486625000e+00 -3.378684300e+00  2.034310000e-01 -1.341750000e-01 -9.438430000e-02  2.613340745e-01  1.366030000e-01
 5.492388700e+01  3.252281300e+00 -3.351670200e+00  1.238870000e-01 -6.401870000e-02 -4.777020000e-02  1.474054773e-01  1.402970000e-01
 4.244068000e+01  3.636303380e+01 -6.249713000e+00  1.499680000e+00  5.603380000e-02 -7.131130000e-01  1.661538456e+00  1.160700000e-01
 4.442163000e+01  3.377184157e+01 -6.278634000e+00  1.382630000e+00 -6.158430000e-03 -6.462340000e-01  1.526211658e+00  1.075320000e-01
 4.623908000e+01  3.105807830e+01 -6.340098000e+00  1.258080000e+00 -6.292170000e-02 -5.802980000e-01  1.386892280e+00  9.965020000e-02
 4.788921000e+01  2.823297100e+01 -6.411951000e+00  1.127210000e+00 -1.130290000e-01 -5.151510000e-01  1.244491258e+00  9.280810000e-02
 4.936716800e+01  2.530886500e+01 -6.481502000e+00  9.911680000e-01 -1.551350000e-01 -4.508020000e-01  1.099865135e+00  8.756870000e-02
 5.066631600e+01  2.229836800e+01 -6.542182000e+00  8.513160000e-01 -1.876320000e-01 -3.873820000e-01  9.539441877e-01  8.472710000e-02
 5.178260000e+01  1.921538200e+01 -6.590946000e+00  7.096000000e-01 -2.086180000e-01 -3.251460000e-01  8.079440273e-01  8.527070000e-02
 5.271392000e+01  1.607513600e+01 -6.626562000e+00  5.689200000e-01 -2.158640000e-01 -2.644620000e-01  6.634812600e-01  9.009390000e-02
 5.346032800e+01  1.289181800e+01 -6.648867000e+00  4.333280000e-01 -2.071820000e-01 -2.058670000e-01  5.225693814e-01  9.990430000e-02
 5.402476400e+01  9.681755000e+00 -6.657951000e+00  3.087640000e-01 -1.801450000e-01 -1.500510000e-01  3.876889621e-01  1.138260000e-01
 5.440819100e+01  6.457475000e+00 -6.655559000e+00  2.001910000e-01 -1.350250000e-01 -9.765900000e-02  2.604716249e-01  1.357610000e-01
 5.462573000e+01  3.237350400e+00 -6.647128000e+00  1.227300000e-01 -6.454960000e-02 -5.082800000e-02  1.476915344e-01  1.399750000e-01
 4.213157000e+01  3.612918930e+01 -9.033498000e+00  1.462570000e+00  4.218930000e-02 -7.417980000e-01  1.640474082e+00  1.127690000e-01
 4.408481000e+01  3.355925090e+01 -9.110097000e+00  1.348810000e+00 -1.774910000e-02 -6.727970000e-01  1.507401489e+00  1.043730000e-01
 4.587565000e+01  3.086450540e+01 -9.232118000e+00  1.227650000e+00 -7.249460000e-02 -6.046180000e-01  1.370380573e+00  9.661030000e-02
 4.750125000e+01  2.805718700e+01 -9.368708000e+00  1.100250000e+00 -1.208130000e-01 -5.370080000e-01  1.230253403e+00  8.988270000e-02
 4.895474500e+01  2.514965400e+01 -9.501037000e+00  9.677450000e-01 -1.613460000e-01 -4.699370000e-01  1.087843601e+00  8.478500000e-02
 5.023444900e+01  2.215552800e+01 -9.619463000e+00  8.314490000e-01 -1.924720000e-01 -4.035630000e-01  9.440423748e-01  8.215360000e-02
 5.133326400e+01  1.908972700e+01 -9.719108000e+00  6.932640000e-01 -2.122730000e-01 -3.382080000e-01  8.000371563e-01  8.301180000e-02
 5.225103700e+01  1.596649900e+01 -9.798009000e+00  5.560370000e-01 -2.185010000e-01 -2.744090000e-01  6.574345075e-01  8.825910000e-02
 5.298577800e+01  1.280202900e+01 -9.855679000e+00  4.237780000e-01 -2.089710000e-01 -2.128790000e-01  5.182413924e-01  9.856440000e-02
 5.354033300e+01  9.612669000e+00 -9.892624000e+00  3.023330000e-01 -1.812310000e-01 -1.547240000e-01  3.849538082e-01  1.130070000e-01
 5.391756100e+01  6.410475000e+00 -9.911136000e+00  1.965610000e-01 -1.356250000e-01 -1.007360000e-01  2.591874014e-01  1.354650000e-01
 5.412922200e+01  3.213610600e+00 -9.919681600e+00  1.212220000e-01 -6.478940000e-02 -5.388160000e-02  1.476335546e-01  1.400060000e-01
 4.171357000e+01  3.580564790e+01 -1.179408400e+01  1.422570000e+00  2.764790000e-02 -7.670840000e-01  1.616442908e+00  1.095120000e-01
 4.362925000e+01  3.326211180e+01 -1.191936100e+01  1.312250000e+00 -2.988820000e-02 -6.963610000e-01  1.485870792e+00  1.012860000e-01
 4.538059000e+01  3.059152450e+01 -1.210129700e+01  1.194590000e+00 -8.247550000e-02 -6.262970000e-01  1.351330977e+00  9.367830000e-02
 4.696880000e+01  2.780714200e+01 -1.230256400e+01  1.070800000e+00 -1.288580000e-01 -5.565640000e-01  1.213664085e+00  8.711300000e-02
 4.839000300e+01  2.492234000e+01 -1.249610700e+01  9.420030000e-01 -1.676600000e-01 -4.871070000e-01  1.073663242e+00  8.221790000e-02
 4.963849700e+01  2.195274900e+01 -1.267110400e+01  8.094970000e-01 -1.972510000e-01 -4.181040000e-01  9.322040039e-01  7.986790000e-02
 5.071113700e+01  1.891129600e+01 -1.282096200e+01  6.751370000e-01 -2.157040000e-01 -3.499620000e-01  7.904502425e-01  8.111030000e-02
 5.160671700e+01  1.581421900e+01 -1.294135000e+01  5.417170000e-01 -2.207810000e-01 -2.833500000e-01  6.499913696e-01  8.683110000e-02
 5.232316700e+01  1.267770500e+01 -1.303321800e+01  4.131670000e-01 -2.102950000e-01 -2.192180000e-01  5.128230576e-01  9.764420000e-02
 5.286420300e+01  9.517927000e+00 -1.309595100e+01  2.952030000e-01 -1.818730000e-01 -1.589510000e-01  3.814289183e-01  1.125720000e-01
 5.323249500e+01  6.346500000e+00 -1.313359400e+01  1.924950000e-01 -1.358000000e-01 -1.035940000e-01  2.573473953e-01  1.354670000e-01
 5.343739500e+01  3.181363400e+00 -1.315791500e+01  1.193950000e-01 -6.483660000e-02 -5.691500000e-02  1.473033195e-01  1.402150000e-01
 4.118785000e+01  3.539149080e+01 -1.452482800e+01  1.379850000e+00  1.249080000e-02 -7.888280000e-01  1.589462694e+00  1.062990000e-01
 4.305409000e+01  3.288049740e+01 -1.469777400e+01  1.273090000e+00 -4.250260000e-02 -7.167740000e-01  1.461618824e+00  9.828310000e-02
 4.475602000e+01  3.023820270e+01 -1.493917500e+01  1.159020000e+00 -9.279730000e-02 -6.451750000e-01  1.329732860e+00  9.087560000e-02
 4.629496000e+01  2.748290000e+01 -1.520165400e+01  1.038960000e+00 -1.371000000e-01 -5.736540000e-01  1.194702140e+00  8.452780000e-02
 4.767103100e+01  2.462898400e+01 -1.545614200e+01  9.140310000e-01 -1.740160000e-01 -5.021420000e-01  1.057298834e+00  7.990060000e-02
 4.887953300e+01  2.169009300e+01 -1.568585100e+01  7.855330000e-01 -2.019070000e-01 -4.308510000e-01  9.184013910e-01  7.790140000e-02
 4.991728200e+01  1.868214600e+01 -1.588326100e+01  6.552820000e-01 -2.188540000e-01 -3.602610000e-01  7.791531050e-01  7.958640000e-02
 5.078400800e+01  1.562036000e+01 -1.604419000e+01  5.260080000e-01 -2.226400000e-01 -2.911900000e-01  6.411276018e-01  8.580600000e-02
 5.147753900e+01  1.252087300e+01 -1.616778000e+01  4.015390000e-01 -2.111270000e-01 -2.247800000e-01  5.062946050e-01  9.710670000e-02
 5.200039900e+01  9.398507000e+00 -1.625572200e+01  2.873990000e-01 -1.819930000e-01 -1.627220000e-01  3.770916156e-01  1.124520000e-01
 5.235503400e+01  6.266238000e+00 -1.631124600e+01  1.880340000e-01 -1.355620000e-01 -1.062460000e-01  2.549942225e-01  1.356720000e-01
 5.255222200e+01  3.140963200e+00 -1.634887230e+01  1.172220000e-01 -6.463680000e-02 -5.987230000e-02  1.466410771e-01  1.405490000e-01
 4.055658000e+01  3.488881007e+01 -1.721589300e+01  1.334580000e+00 -3.189930000e-03 -8.068930000e-01  1.559548097e+00  1.031490000e-01
 4.236248000e+01  3.241448760e+01 -1.743488600e+01  1.231480000e+00 -5.551240000e-02 -7.338860000e-01  1.434647440e+00  9.538310000e-02
 4.400209000e+01  2.980761200e+01 -1.773408600e+01  1.121090000e+00 -1.033880000e-01 -6.610860000e-01  1.305590505e+00  8.822410000e-02
 4.548184000e+01  2.708752700e+01 -1.805709900e+01  1.004840000e+00 -1.454730000e-01 -5.880990000e-01  1.173339786e+00  8.215250000e-02
 4.680092200e+01  2.426965100e+01 -1.836886200e+01  8.839220000e-01 -1.803490000e-01 -5.148620000e-01  1.038713985e+00  7.786210000e-02
 4.795963400e+01  2.137062000e+01 -1.865162400e+01  7.596340000e-01 -2.063800000e-01 -4.416240000e-01  9.025897605e-01  7.628340000e-02
 4.895476100e+01  1.840333500e+01 -1.889495000e+01  6.337610000e-01 -2.216650000e-01 -3.689500000e-01  7.661021341e-01  7.846270000e-02
 4.978395800e+01  1.538496200e+01 -1.909379100e+01  5.089580000e-01 -2.240380000e-01 -2.977910000e-01  6.308016732e-01  8.519450000e-02
 5.044891900e+01  1.233058400e+01 -1.924848000e+01  3.889190000e-01 -2.114160000e-01 -2.294800000e-01  4.986138626e-01  9.694760000e-02
 5.094993400e+01  9.255017000e+00 -1.935897200e+01  2.789340000e-01 -1.815830000e-01 -1.659720000e-01  3.719183607e-01  1.126330000e-01
 5.129015700e+01  6.170228000e+00 -1.943065200e+01  1.831570000e-01 -1.348720000e-01 -1.086520000e-01  2.520757825e-01  1.360560000e-01
 5.147570300e+01  3.092692100e+00 -1.948172980e+01  1.147030000e-01 -6.420790000e-02 -6.272980000e-02  1.456518467e-01  1.409790000e-01
 3.982094000e+01  3.429769660e+01 -1.985812000e+01  1.286940000e+00 -1.930340000e-02 -8.211200000e-01  1.526704044e+00  1.000760000e-01
 4.155656000e+01  3.186716230e+01 -2.012353200e+01  1.187560000e+00 -6.883770000e-02 -7.475320000e-01  1.404934687e+00  9.260350000e-02
 4.312291000e+01  2.930082800e+01 -2.047685700e+01  1.080910000e+00 -1.141720000e-01 -6.738570000e-01  1.278860794e+00  8.574610000e-02
 4.453156600e+01  2.662209500e+01 -2.085671800e+01  9.685660000e-01 -1.539050000e-01 -5.997180000e-01  1.149551445e+00  8.001530000e-02
 4.578479200e+01  2.384740800e+01 -2.122308300e+01  8.517920000e-01 -1.865920000e-01 -5.250830000e-01  1.017879336e+00  7.613410000e-02
 4.688290500e+01  2.099439400e+01 -2.155525000e+01  7.319050000e-01 -2.106060000e-01 -4.502500000e-01  8.847400063e-01  7.504450000e-02
 4.782566300e+01  1.807691800e+01 -2.184187000e+01  6.106630000e-01 -2.240820000e-01 -3.758700000e-01  7.512657980e-01  7.776250000e-02
 4.861263500e+01  1.511007900e+01 -2.207702600e+01  4.906350000e-01 -2.249210000e-01 -3.030260000e-01  6.189805459e-01  8.500740000e-02
 4.924235500e+01  1.210886600e+01 -2.226121900e+01  3.753550000e-01 -2.111340000e-01 -2.332190000e-01  4.897550857e-01  9.716500000e-02
 4.971782400e+01  9.088090000e+00 -2.239363600e+01  2.698240000e-01 -1.806100000e-01 -1.686360000e-01  3.658730156e-01  1.131030000e-01
 5.003987100e+01  6.058871000e+00 -2.248077400e+01  1.778710000e-01 -1.337290000e-01 -1.107740000e-01  2.485808061e-01  1.365950000e-01
 5.021283300e+01  3.036767500e+00 -2.254344140e+01  1.118330000e-01 -6.353250000e-02 -6.544140000e-02  1.443106901e-01  1.414790000e-01
 3.898815000e+01  3.362225720e+01 -2.244235100e+01  1.237150000e+00 -3.574280000e-02 -8.313510000e-01  1.490960145e+00  9.710180000e-02
 4.063953000e+01  3.124061370e+01 -2.275154900e+01  1.141530000e+00 -8.238630000e-02 -7.575490000e-01  1.372500904e+00  8.997050000e-02
 4.212166000e+01  2.871993300e+01 -2.315731600e+01  1.038660000e+00 -1.250670000e-01 -6.833160000e-01  1.249550762e+00  8.347350000e-02
 4.344729000e+01  2.608768400e+01 -2.359033500e+01  9.302900000e-01 -1.623160000e-01 -6.083350000e-01  1.123324281e+00  7.815200000e-02
 4.462478000e+01  2.336332900e+01 -2.400762800e+01  8.177800000e-01 -1.926710000e-01 -5.326280000e-01  9.947757682e-01  7.475240000e-02
 4.565447400e+01  2.056348200e+01 -2.438556200e+01  7.024740000e-01 -2.145180000e-01 -4.565620000e-01  8.648332515e-01  7.421410000e-02
 4.653710400e+01  1.770295000e+01 -2.471287400e+01  5.861040000e-01 -2.260500000e-01 -3.808740000e-01  7.346301826e-01  7.750210000e-02
 4.727413400e+01  1.479574600e+01 -2.498177100e+01  4.711340000e-01 -2.252540000e-01 -3.067710000e-01  6.056525876e-01  8.524630000e-02
 4.786391100e+01  1.185575000e+01 -2.519290200e+01  3.609110000e-01 -2.102500000e-01 -2.359020000e-01  4.796994539e-01  9.774860000e-02
 4.831010800e+01  8.898531000e+00 -2.534564600e+01  2.601080000e-01 -1.790690000e-01 -1.706460000e-01  3.589455888e-01  1.138460000e-01
 4.861118300e+01  5.932480000e+00 -2.544856100e+01  1.721830000e-01 -1.321200000e-01 -1.125610000e-01  2.444844752e-01  1.372730000e-01
 4.876861800e+01  2.973280000e+00 -2.552395770e+01  1.086180000e-01 -6.262000000e-02 -6.795770000e-02  1.426091979e-01  1.420290000e-01
 3.805968000e+01  3.286970490e+01 -2.495052300e+01  1.185680000e+00 -5.229510000e-02 -8.375230000e-01  1.452589624e+00  9.427260000e-02
 3.961486000e+01  3.054305880e+01 -2.530594400e+01  1.093860000e+00 -9.594120000e-02 -7.639440000e-01  1.337663952e+00  8.754050000e-02
 4.100082800e+01  2.807513800e+01 -2.576250200e+01  9.948280000e-01 -1.358620000e-01 -6.895020000e-01  1.218012414e+00  8.146630000e-02
 4.223451200e+01  2.549547500e+01 -2.624499600e+01  8.905120000e-01 -1.705250000e-01 -6.139960000e-01  1.095025792e+00  7.661700000e-02
 4.332537100e+01  2.282756300e+01 -2.670854600e+01  7.823710000e-01 -1.984370000e-01 -5.375460000e-01  9.697614793e-01  7.375700000e-02
 4.427779700e+01  2.008698700e+01 -2.712960200e+01  6.717970000e-01 -2.180130000e-01 -4.606020000e-01  8.432052418e-01  7.381000000e-02
 4.509448700e+01  1.728949100e+01 -2.749300300e+01  5.604870000e-01 -2.275090000e-01 -3.840030000e-01  7.164944705e-01  7.767400000e-02
 4.577479400e+01  1.444998300e+01 -2.779406400e+01  4.507940000e-01 -2.250170000e-01 -3.090640000e-01  5.910739690e-01  8.588140000e-02
 4.631984900e+01  1.157920900e+01 -2.803056200e+01  3.458490000e-01 -2.087910000e-01 -2.375620000e-01  4.686586352e-01  9.865570000e-02
 4.673196300e+01  8.690999000e+00 -2.820402100e+01  2.499630000e-01 -1.770010000e-01 -1.720210000e-01  3.512863217e-01  1.148150000e-01
 4.700919600e+01  5.794687000e+00 -2.832202400e+01  1.661960000e-01 -1.301130000e-01 -1.140240000e-01  2.398999286e-01  1.380510000e-01
 4.714912200e+01  2.904593400e+00 -2.840926020e+01  1.051220000e-01 -6.150660000e-02 -7.026020000e-02  1.406065163e-01  1.426020000e-01
 3.703910000e+01  3.207372580e+01 -2.735028600e+01  1.134100000e+00 -6.827420000e-02 -8.402860000e-01  1.413125875e+00  9.169520000e-02
 3.847647000e+01  2.981926500e+01 -2.775470000e+01  1.046470000e+00 -1.087350000e-01 -7.677000000e-01  1.302415468e+00  8.543940000e-02
 3.975244500e+01  2.741313900e+01 -2.826153100e+01  9.514450000e-01 -1.458610000e-01 -6.935310000e-01  1.186384536e+00  7.984150000e-02
 4.088420900e+01  2.489204000e+01 -2.879382400e+01  8.512090000e-01 -1.779600000e-01 -6.178240000e-01  1.066739433e+00  7.549360000e-02
 4.188242900e+01  2.228351500e+01 -2.930289000e+01  7.474290000e-01 -2.034850000e-01 -5.408900000e-01  9.447847625e-01  7.318470000e-02
 4.275256100e+01  1.960614500e+01 -2.976433000e+01  6.415610000e-01 -2.208550000e-01 -4.633300000e-01  8.216155650e-01  7.381600000e-02
 4.349728400e+01  1.687460900e+01 -3.016408800e+01  5.352840000e-01 -2.283910000e-01 -3.860880000e-01  6.983948405e-01  7.821080000e-02
 4.411782500e+01  1.410270800e+01 -3.049559200e+01  4.308250000e-01 -2.242920000e-01 -3.105920000e-01  5.765279459e-01  8.680890000e-02
 4.461509200e+01  1.130206000e+01 -3.075772000e+01  3.310920000e-01 -2.069400000e-01 -2.387200000e-01  4.576388472e-01  9.976770000e-02
 4.499101900e+01  8.485040000e+00 -3.095211800e+01  2.400190000e-01 -1.746600000e-01 -1.731180000e-01  3.436350941e-01  1.158950000e-01
 4.524127000e+01  5.659156000e+00 -3.108635800e+01  1.602700000e-01 -1.279440000e-01 -1.153580000e-01  2.352947262e-01  1.388500000e-01
 4.536052100e+01  2.837752500e+00 -3.118842090e+01  1.015210000e-01 -6.034750000e-02 -7.242090000e-02  1.385392398e-01  1.431440000e-01
 3.591937000e+01  3.132490240e+01 -2.956895600e+01  1.086370000e+00 -8.209760000e-02 -8.419560000e-01  1.376891317e+00  8.956310000e-02
 3.720281000e+01  2.917684400e+01 -3.003584200e+01  1.003810000e+00 -1.191560000e-01 -7.718420000e-01  1.271838331e+00  8.388360000e-02
 3.835287900e+01  2.684332700e+01 -3.060455700e+01  9.128790000e-01 -1.536730000e-01 -6.985570000e-01  1.159717785e+00  7.876460000e-02
 3.937749100e+01  2.438141600e+01 -3.119381500e+01  8.164910000e-01 -1.835840000e-01 -6.228150000e-01  1.043196608e+00  7.487450000e-02
 4.028267900e+01  2.182686400e+01 -3.175540500e+01  7.166790000e-01 -2.071360000e-01 -5.454050000e-01  9.241215967e-01  7.304360000e-02
 4.107105200e+01  1.920428800e+01 -3.226216000e+01  6.150520000e-01 -2.227120000e-01 -4.671600000e-01  8.038209149e-01  7.415210000e-02
 4.174527000e+01  1.653032200e+01 -3.270117500e+01  5.132700000e-01 -2.286780000e-01 -3.891750000e-01  6.835180328e-01  7.895910000e-02
 4.230645000e+01  1.381668300e+01 -3.306798200e+01  4.134500000e-01 -2.233170000e-01 -3.129820000e-01  5.645964199e-01  8.782970000e-02
 4.275626900e+01  1.107487900e+01 -3.335857600e+01  3.182690000e-01 -2.051210000e-01 -2.405760000e-01  4.486051636e-01  1.008750000e-01
 4.309434300e+01  8.316689000e+00 -3.357669100e+01  2.313430000e-01 -1.725110000e-01 -1.746910000e-01  3.373374783e-01  1.168970000e-01
 4.331496100e+01  5.548459000e+00 -3.373195200e+01  1.549610000e-01 -1.260410000e-01 -1.169520000e-01  2.314670938e-01  1.395360000e-01
 4.341104280e+01  2.783091000e+00 -3.385158870e+01  9.804280000e-02 -5.930900000e-02 -7.458870000e-02  1.367238907e-01  1.435770000e-01
 3.470063000e+01  3.077347780e+01 -3.150480700e+01  1.048630000e+00 -9.152220000e-02 -8.468070000e-01  1.350956434e+00  8.813190000e-02
 3.577069500e+01  2.876586500e+01 -3.207517900e+01  9.716950000e-01 -1.251350000e-01 -7.811790000e-01  1.253032550e+00  8.308150000e-02
 3.677638900e+01  2.650524700e+01 -3.273812800e+01  8.843890000e-01 -1.577530000e-01 -7.091280000e-01  1.144505322e+00  7.835160000e-02
 3.769391200e+01  2.408465400e+01 -3.340605300e+01  7.909120000e-01 -1.863460000e-01 -6.330530000e-01  1.030059573e+00  7.478860000e-02
 3.851005300e+01  2.156523100e+01 -3.403466200e+01  6.940530000e-01 -2.087690000e-01 -5.546620000e-01  9.126576556e-01  7.327500000e-02
 3.922260000e+01  1.897666800e+01 -3.459815700e+01  5.956000000e-01 -2.233320000e-01 -4.751570000e-01  7.939714837e-01  7.467820000e-02
 3.983218100e+01  1.633557500e+01 -3.508578000e+01  4.971810000e-01 -2.284250000e-01 -3.957800000e-01  6.752841889e-01  7.971100000e-02
 4.033877900e+01  1.365561700e+01 -3.549418700e+01  4.007790000e-01 -2.223830000e-01 -3.181870000e-01  5.579614436e-01  8.869770000e-02
 4.074389300e+01  1.094624200e+01 -3.582048000e+01  3.088930000e-01 -2.037580000e-01 -2.444800000e-01  4.435117568e-01  1.017290000e-01
 4.104584900e+01  8.219587000e+00 -3.606958500e+01  2.248490000e-01 -1.710130000e-01 -1.775850000e-01  3.336749184e-01  1.176330000e-01
 4.123577800e+01  5.481800000e+00 -3.625114200e+01  1.507780000e-01 -1.247000000e-01 -1.191420000e-01  2.290827611e-01  1.399800000e-01
 4.130591280e+01  2.748013100e+00 -3.639191380e+01  9.491280000e-02 -5.858690000e-02 -7.691380000e-02  1.354865199e-01  1.438450000e-01
 3.653400000e+01 -7.401820000e-37 -3.653400000e+01 -1.204470000e-37 -7.401820000e-37 -2.950960000e-37  8.058898946e-37  9.236910000e-02
 3.426000000e+01 -8.141290000e-37 -3.867200000e+01  4.028130000e-37 -8.141290000e-37  1.808720000e-37  9.261636043e-37  9.275500000e-02
 3.186500000e+01 -8.222740000e-37 -4.067300000e+01  4.320490000e-37 -8.222740000e-37  1.773880000e-37  9.456571112e-37  9.348220000e-02
 2.935000000e+01 -8.317100000e-37 -4.252100000e+01  4.630710000e-37 -8.317100000e-37  1.717480000e-37  9.673022540e-37  9.443610000e-02
 2.672900000e+01 -8.416870000e-37 -4.421500000e+01  4.948700000e-37 -8.416870000e-37  1.633060000e-37  9.899505909e-37  9.554830000e-02
 2.401000000e+01 -8.519690000e-37 -4.574800000e+01  5.269610000e-37 -8.519690000e-37  1.518790000e-37  1.013215823e-36  9.680560000e-02
 2.120500000e+01 -8.626930000e-37 -4.711500000e+01  5.590950000e-37 -8.626930000e-37  1.374370000e-37  1.037166988e-36  9.821000000e-02
 1.832100000e+01 -8.749880000e-37 -4.830900000e+01  5.919940000e-37 -8.749880000e-37  1.207450000e-37  1.063315687e-36  9.977560000e-02
 1.537100000e+01 -8.897340000e-37 -4.932700000e+01  6.257570000e-37 -8.897340000e-37  1.020550000e-37  1.092526264e-36  1.015160000e-01
 1.236400000e+01 -9.107480000e-37 -5.016500000e+01  6.634520000e-37 -9.107480000e-37  8.336830000e-38  1.129858730e-36  1.034450000e-01
 9.313300000e+00 -9.335690000e-37 -5.082100000e+01  7.001160000e-37 -9.335690000e-37  6.534820000e-38  1.168753130e-36  1.055440000e-01
 6.228100000e+00 -9.517030000e-37 -5.129200000e+01  7.412810000e-37 -9.517030000e-37  4.752600000e-38  1.207267510e-36  1.079710000e-01
 3.119700000e+00 -9.140220000e-37 -5.157100000e+01  7.625480000e-37 -9.140220000e-37  1.504110000e-38  1.190437694e-36  1.106750000e-01
 5.157100000e+01 -6.844480000e-37 -3.119700000e+00  9.770080000e-38 -6.844480000e-37  1.748830000e-37  7.131609739e-37  1.003750000e-01
 5.129200000e+01 -6.984690000e-37 -6.228100000e+00  1.150280000e-37 -6.984690000e-37  1.956710000e-37  7.344232601e-37  9.871720000e-02
 5.082100000e+01 -7.147020000e-37 -9.313300000e+00  1.359230000e-37 -7.147020000e-37  2.105660000e-37  7.573718051e-37  9.736400000e-02
 5.016500000e+01 -7.307490000e-37 -1.236400000e+01  1.588680000e-37 -7.307490000e-37  2.212540000e-37  7.798631130e-37  9.621880000e-02
 4.932700000e+01 -7.454710000e-37 -1.537100000e+01  1.832680000e-37 -7.454710000e-37  2.282130000e-37  8.008716158e-37  9.524110000e-02
 4.830900000e+01 -7.586890000e-37 -1.832100000e+01  2.084600000e-37 -7.586890000e-37  2.313590000e-37  8.201167949e-37  9.440900000e-02
 4.711500000e+01 -7.702070000e-37 -2.120500000e+01  2.339340000e-37 -7.702070000e-37  2.309800000e-37  8.374339972e-37  9.370510000e-02
 4.574800000e+01 -7.800840000e-37 -2.401000000e+01  2.592340000e-37 -7.800840000e-37  2.272240000e-37  8.528564123e-37  9.312470000e-02
 4.421500000e+01 -7.888030000e-37 -2.672900000e+01  2.840310000e-37 -7.888030000e-37  2.208300000e-37  8.669773184e-37  9.267930000e-02
 4.252100000e+01 -7.965620000e-37 -2.935000000e+01  3.082410000e-37 -7.965620000e-37  2.125230000e-37  8.801645070e-37  9.238900000e-02
 4.067300000e+01 -8.043020000e-37 -3.186500000e+01  3.322150000e-37 -8.043020000e-37  2.043730000e-37  8.938886041e-37  9.225770000e-02
 3.867200000e+01 -8.090140000e-37 -3.426000000e+01  3.555420000e-37 -8.090140000e-37  1.946980000e-37  9.048873284e-37  9.225320000e-02
 2.918400000e+00  2.618640000e-37 -4.824500000e+01  1.760820000e-37  2.618640000e-37  2.183290000e-37  3.837253933e-37  8.853470000e-02
 5.826100000e+00  2.531130000e-37 -4.798200000e+01  1.431920000e-37  2.531130000e-37  2.185880000e-37  3.638005681e-37  8.409270000e-02
 8.712400000e+00  2.327700000e-37 -4.754200000e+01  1.058820000e-37  2.327700000e-37  2.110250000e-37  3.315485205e-37  7.975550000e-02
 1.156700000e+01  2.106730000e-37 -4.692900000e+01  7.836790000e-38  2.106730000e-37  1.979290000e-37  2.995004670e-37  7.568900000e-02
 1.437900000e+01  1.888530000e-37 -4.614500000e+01  5.289810000e-38  1.888530000e-37  1.852030000e-37  2.697476891e-37  7.187860000e-02
 1.713900000e+01  1.697030000e-37 -4.519200000e+01  2.901500000e-38  1.697030000e-37  1.716500000e-37  2.431145840e-37  6.832290000e-02
 1.983700000e+01  1.528050000e-37 -4.407500000e+01  0.000000000e+00  1.528050000e-37  1.569510000e-37  2.190501870e-37  6.500280000e-02
 2.246100000e+01  1.379590000e-37 -4.279700000e+01 -1.503550000e-38  1.379590000e-37  1.407290000e-37  1.976446391e-37  6.191140000e-02
 2.500400000e+01  1.247570000e-37 -4.136200000e+01 -3.450670000e-38  1.247570000e-37  1.229700000e-37  1.785403100e-37  5.905790000e-02
 2.745700000e+01  1.130020000e-37 -3.977800000e+01 -5.201810000e-38  1.130020000e-37  1.038130000e-37  1.620261513e-37  5.647550000e-02
 2.980900000e+01  1.027470000e-37 -3.804800000e+01 -6.797040000e-38  1.027470000e-37  8.369760000e-38  1.489369314e-37  5.423370000e-02
 3.205000000e+01  9.383900000e-38 -3.617800000e+01 -8.329300000e-38  9.383900000e-38  6.323700000e-38  1.405076508e-37  5.247290000e-02
 3.417700000e+01  8.490170000e-38 -3.417700000e+01 -1.000040000e-37  8.490170000e-38  4.169300000e-38  1.376495729e-37  5.134800000e-02
 4.824500000e+01  2.725470000e-38 -2.918400000e+00 -9.832270000e-38  2.725470000e-38 -3.158160000e-37  3.318884118e-37  6.997840000e-02
 4.798200000e+01  1.474410000e-38 -5.826100000e+00 -1.105280000e-37  1.474410000e-38 -2.872610000e-37  3.081439751e-37  6.662850000e-02
 4.754200000e+01  0.000000000e+00 -8.712400000e+00 -1.206600000e-37  0.000000000e+00 -2.574580000e-37  2.843298390e-37  6.365590000e-02
 4.692900000e+01  0.000000000e+00 -1.156700000e+01 -1.279490000e-37 -0.000000000e+00 -2.276730000e-37  2.611626725e-37  6.097820000e-02
 4.614500000e+01 -2.111630000e-38 -1.437900000e+01 -1.318740000e-37 -2.111630000e-38 -1.977190000e-37  2.385989375e-37  5.856860000e-02
 4.519200000e+01 -3.256120000e-38 -1.713900000e+01 -1.325670000e-37 -3.256120000e-38 -1.682200000e-37  2.166384306e-37  5.643380000e-02
 4.407500000e+01 -4.343790000e-38 -1.983700000e+01 -1.300210000e-37 -4.343790000e-38 -1.393370000e-37  1.954663940e-37  5.458860000e-02
 4.279700000e+01 -5.369040000e-38 -2.246100000e+01 -1.243790000e-37 -5.369040000e-38 -1.113920000e-37  1.753880622e-37  5.305790000e-02
 4.136200000e+01 -6.318650000e-38 -2.500400000e+01 -1.158810000e-37 -6.318650000e-38 -8.469010000e-38  1.568226801e-37  5.187810000e-02
 3.977800000e+01 -7.175360000e-38 -2.745700000e+01 -1.048070000e-37 -7.175360000e-38 -5.949330000e-38  1.402588290e-37  5.109900000e-02
 3.804800000e+01 -7.831820000e-38 -2.980900000e+01 -9.219380000e-38 -7.831820000e-38 -3.626620000e-38  1.262880615e-37  5.076280000e-02
 3.617800000e+01 -8.284230000e-38 -3.205000000e+01 -7.884360000e-38 -8.284230000e-38 -1.505890000e-38  1.153513346e-37  5.083450000e-02
 5.198000000e+00  5.155751770e+01 -1.486330000e+00  2.078300000e+00 -1.348230000e-02 -1.486330000e+00  2.555130042e+00  1.990660000e-01
 8.315600000e+00  5.151643700e+01 -1.419530000e+00  2.087500000e+00  2.244370000e-01 -1.419530000e+00  2.534382299e+00  2.126100000e-01
 1.141565000e+01  5.121836800e+01 -1.350680000e+00  2.102350000e+00  3.973680000e-01 -1.350680000e+00  2.530239774e+00  2.204320000e-01
 1.447759000e+01  5.067680400e+01 -1.280570000e+00  2.113590000e+00  5.118040000e-01 -1.280570000e+00  2.523700764e+00  2.227030000e-01
 1.748603000e+01  4.990326700e+01 -1.209550000e+00  2.115030000e+00  5.762670000e-01 -1.209550000e+00  2.503686633e+00  2.202930000e-01
 2.042373000e+01  4.890897600e+01 -1.138390000e+00  2.102730000e+00  5.999760000e-01 -1.138390000e+00  2.465233548e+00  2.142400000e-01
 2.327974000e+01  4.770695400e+01 -1.067630000e+00  2.074740000e+00  5.919540000e-01 -1.067630000e+00  2.407236885e+00  2.055730000e-01
 2.604057000e+01  4.630842300e+01 -9.977770000e-01  2.030570000e+00  5.604230000e-01 -9.977770000e-01  2.330846929e+00  1.951850000e-01
 2.869980000e+01  4.472747300e+01 -9.292020000e-01  1.970800000e+00  5.124730000e-01 -9.292020000e-01  2.238324725e+00  1.838050000e-01
 3.124673000e+01  4.297495800e+01 -8.621820000e-01  1.896730000e+00  4.539580000e-01 -8.621820000e-01  2.132374348e+00  1.719960000e-01
 3.367492000e+01  4.106256400e+01 -7.968560000e-01  1.809920000e+00  3.895640000e-01 -7.968560000e-01  2.015576841e+00  1.601670000e-01
 3.597190000e+01  3.899499000e+01 -7.332280000e-01  1.711900000e+00  3.229900000e-01 -7.332280000e-01  1.890118369e+00  1.486140000e-01
 3.813833000e+01  3.679068700e+01 -6.713970000e-01  1.604330000e+00  2.566870000e-01 -6.713970000e-01  1.757992291e+00  1.375360000e-01
 4.016043000e+01  3.445282100e+01 -6.112260000e-01  1.488430000e+00  1.928210000e-01 -6.112260000e-01  1.620555777e+00  1.270790000e-01
 4.203844000e+01  3.199765600e+01 -5.526660000e-01  1.365440000e+00  1.326560000e-01 -5.526660000e-01  1.479007679e+00  1.173650000e-01
 4.375707000e+01  2.942760990e+01 -4.955630000e-01  1.236070000e+00  7.760990000e-02 -4.955630000e-01  1.333969650e+00  1.085400000e-01
 4.531624000e+01  2.675752240e+01 -4.398760000e-01  1.101240000e+00  2.852240000e-02 -4.398760000e-01  1.186184623e+00  1.008390000e-01
 4.670988700e+01  2.399633570e+01 -3.855530000e-01  9.618870000e-01 -1.366430000e-02 -3.855530000e-01  1.036370797e+00  9.462140000e-02
 4.793417400e+01  2.115712290e+01 -3.325500000e-01  8.191740000e-01 -4.787710000e-02 -3.325500000e-01  8.853969514e-01  9.040740000e-02
 4.898381200e+01  1.824811490e+01 -2.808480000e-01  6.748120000e-01 -7.288510000e-02 -2.808480000e-01  7.345468482e-01  8.885300000e-02
 4.985829200e+01  1.528355130e+01 -2.304620000e-01  5.312920000e-01 -8.744870000e-02 -2.304620000e-01  5.856886526e-01  9.060760000e-02
 5.055737300e+01  1.227379870e+01 -1.814340000e-01  3.923730000e-01 -9.020130000e-02 -1.814340000e-01  4.416006590e-01  9.618280000e-02
 5.108367300e+01  9.233241400e+00 -1.338210000e-01  2.626730000e-01 -8.005860000e-02 -1.338210000e-01  3.054742942e-01  1.052030000e-01
 5.144177400e+01  6.172340000e+00 -8.768300000e-02  1.497740000e-01 -5.576000000e-02 -8.768300000e-02  1.822902553e-01  1.194940000e-01
 5.162383930e+01  3.103092000e+00 -4.301760000e-02  5.283930000e-02 -1.660800000e-02 -4.301760000e-02  7.013081490e-02  1.152570000e-01
 5.308870000e+00  4.823982681e+01 -1.692960000e+00  2.390470000e+00 -5.173190000e-03 -1.692960000e+00  2.929246856e+00  3.646820000e-01
 8.165470000e+00  4.820210300e+01 -1.570670000e+00  2.339370000e+00  2.201030000e-01 -1.570670000e+00  2.826322978e+00  3.542370000e-01
 1.100728000e+01  4.792941900e+01 -1.455450000e+00  2.294880000e+00  3.874190000e-01 -1.455450000e+00  2.744977668e+00  3.396280000e-01
 1.381777000e+01  4.743189100e+01 -1.347610000e+00  2.250770000e+00  5.028910000e-01 -1.347610000e+00  2.671126665e+00  3.218000000e-01
 1.658172000e+01  4.671872600e+01 -1.246470000e+00  2.202720000e+00  5.737260000e-01 -1.246470000e+00  2.595154019e+00  3.017990000e-01
 1.928686000e+01  4.579969700e+01 -1.151900000e+00  2.147860000e+00  6.076970000e-01 -1.151900000e+00  2.511866205e+00  2.806200000e-01
 2.192155000e+01  4.468736900e+01 -1.063440000e+00  2.084550000e+00  6.123690000e-01 -1.063440000e+00  2.418935536e+00  2.591440000e-01
 2.447309000e+01  4.339174900e+01 -9.807100000e-01  2.012090000e+00  5.947490000e-01 -9.807100000e-01  2.316036408e+00  2.380590000e-01
 2.693452000e+01  4.192298100e+01 -9.032220000e-01  1.930520000e+00  5.609810000e-01 -9.032220000e-01  2.203954885e+00  2.178580000e-01
 2.929732000e+01  4.029423500e+01 -8.305030000e-01  1.840320000e+00  5.162350000e-01 -8.305030000e-01  2.083989326e+00  1.988530000e-01
 3.155119000e+01  3.851272600e+01 -7.620400000e-01  1.742190000e+00  4.647260000e-01 -7.620400000e-01  1.957524256e+00  1.812230000e-01
 3.368689000e+01  3.658783900e+01 -6.973050000e-01  1.636890000e+00  4.098390000e-01 -6.973050000e-01  1.825817938e+00  1.650550000e-01
 3.570225000e+01  3.453104000e+01 -6.358460000e-01  1.525250000e+00  3.540400000e-01 -6.358460000e-01  1.689979887e+00  1.503380000e-01
 3.758586000e+01  3.234931800e+01 -5.771970000e-01  1.407860000e+00  2.993180000e-01 -5.771970000e-01  1.550747375e+00  1.369850000e-01
 3.933339000e+01  3.005601300e+01 -5.209510000e-01  1.285390000e+00  2.470130000e-01 -5.209510000e-01  1.408769967e+00  1.249210000e-01
 4.093624000e+01  2.765529800e+01 -4.667150000e-01  1.158240000e+00  1.982980000e-01 -4.667150000e-01  1.264383204e+00  1.140680000e-01
 4.238900000e+01  2.515787800e+01 -4.142110000e-01  1.027000000e+00  1.538780000e-01 -4.142110000e-01  1.118024236e+00  1.043710000e-01
 4.368934500e+01  2.257535400e+01 -3.632080000e-01  8.923450000e-01  1.143540000e-01 -3.632080000e-01  9.701940464e-01  9.582970000e-02
 4.483027200e+01  1.991726120e+01 -3.135320000e-01  7.552720000e-01  8.026120000e-02 -3.135320000e-01  8.216933547e-01  8.853800000e-02
 4.580924700e+01  1.719106060e+01 -2.650750000e-01  6.172470000e-01  5.206060000e-02 -2.650750000e-01  6.737721579e-01  8.272400000e-02
 4.662553700e+01  1.440908850e+01 -2.177920000e-01  4.805370000e-01  3.008850000e-02 -2.177920000e-01  5.284453439e-01  7.883940000e-02
 4.727712500e+01  1.158149930e+01 -1.716900000e-01  3.481250000e-01  1.449930000e-02 -1.716900000e-01  3.884310768e-01  7.763150000e-02
 4.776670100e+01  8.717567530e+00 -1.268290000e-01  2.247010000e-01  5.167530000e-03 -1.268290000e-01  2.580752565e-01  8.035260000e-02
 4.809688900e+01  5.828229320e+00 -8.322590000e-02  1.148890000e-01  2.129320000e-03 -8.322590000e-02  1.418822285e-01  8.792370000e-02
 4.827495020e+01  2.914910480e+00 -4.103620000e-02  2.995020000e-02 -3.489520000e-03 -4.103620000e-02  5.092308848e-02  8.310310000e-02
 3.145004000e+00  3.231882800e+01 -3.307408000e+01  9.124040000e-01  4.808280000e-01 -1.350080000e+00  1.698938678e+00  1.823860000e-01
 3.261400000e+00  3.420277800e+01 -3.119653000e+01  1.005200000e+00  5.177780000e-01 -1.443530000e+00  1.833657536e+00  2.007710000e-01
 3.408670000e+00  3.596048700e+01 -2.920052000e+01  1.104270000e+00  5.494870000e-01 -1.528520000e+00  1.964108344e+00  2.207070000e-01
 3.572810000e+00  3.758370800e+01 -2.709391000e+01  1.210210000e+00  5.737080000e-01 -1.604910000e+00  2.090331366e+00  2.423450000e-01
 3.745730000e+00  3.906291500e+01 -2.488461000e+01  1.323630000e+00  5.879150000e-01 -1.672610000e+00  2.212524494e+00  2.657020000e-01
 3.923720000e+00  4.039139300e+01 -2.258059000e+01  1.445120000e+00  5.893930000e-01 -1.731590000e+00  2.331128450e+00  2.906930000e-01
 4.105510000e+00  4.155937500e+01 -2.019196000e+01  1.575210000e+00  5.753750000e-01 -1.781960000e+00  2.446982709e+00  3.170800000e-01
 4.290520000e+00  4.256126400e+01 -1.772589000e+01  1.714220000e+00  5.432640000e-01 -1.823890000e+00  2.561300590e+00  3.444600000e-01
 4.478570000e+00  4.338884000e+01 -1.519469000e+01  1.862270000e+00  4.908400000e-01 -1.857690000e+00  2.675814940e+00  3.722760000e-01
 4.669310000e+00  4.403951400e+01 -1.260870000e+01  2.019110000e+00  4.165140000e-01 -1.883700000e+00  2.792600006e+00  3.998370000e-01
 4.861820000e+00  4.450860900e+01 -9.976800000e+00  2.184120000e+00  3.196090000e-01 -1.902200000e+00  2.913914022e+00  4.263040000e-01
 5.054670000e+00  4.479458400e+01 -7.310500000e+00  2.356070000e+00  2.005840000e-01 -1.913200000e+00  3.041649885e+00  4.507110000e-01
 5.245380000e+00  4.489845350e+01 -4.618990000e+00  2.533080000e+00  6.145350000e-02 -1.916290000e+00  3.176859799e+00  4.713160000e-01
 5.408873000e+00  3.221391700e+01 -3.287899000e+01  9.328730000e-01  4.699170000e-01 -1.298990000e+00  1.666868034e+00  1.735300000e-01
 5.545440000e+00  3.407984600e+01 -3.100821000e+01  1.025340000e+00  5.078460000e-01 -1.386210000e+00  1.797444808e+00  1.906320000e-01
 5.736240000e+00  3.582064800e+01 -2.901622000e+01  1.123340000e+00  5.416480000e-01 -1.464220000e+00  1.923334479e+00  2.090070000e-01
 5.953870000e+00  3.742859300e+01 -2.691208000e+01  1.227170000e+00  5.695930000e-01 -1.533080000e+00  2.044680093e+00  2.288610000e-01
 6.181310000e+00  3.889668900e+01 -2.470282000e+01  1.337110000e+00  5.896890000e-01 -1.592820000e+00  2.161636376e+00  2.502520000e-01
 6.409950000e+00  4.021874500e+01 -2.239841000e+01  1.453450000e+00  5.997450000e-01 -1.643410000e+00  2.274424630e+00  2.731510000e-01
 6.635780000e+00  4.138550800e+01 -2.000785000e+01  1.576380000e+00  5.975080000e-01 -1.684850000e+00  2.383423848e+00  2.973940000e-01
 6.856820000e+00  4.239085100e+01 -1.754119000e+01  1.705920000e+00  5.808510000e-01 -1.717190000e+00  2.489235310e+00  3.226700000e-01
 7.072040000e+00  4.322795000e+01 -1.500853000e+01  1.841840000e+00  5.479500000e-01 -1.740530000e+00  2.592695213e+00  3.485430000e-01
 7.280570000e+00  4.389348700e+01 -1.242007000e+01  1.983670000e+00  4.974870000e-01 -1.755070000e+00  2.694941686e+00  3.744470000e-01
 7.481130000e+00  4.438286300e+01 -9.787920000e+00  2.130530000e+00  4.288630000e-01 -1.760920000e+00  2.797127241e+00  3.997010000e-01
 7.672090000e+00  4.469536200e+01 -7.121790000e+00  2.281190000e+00  3.423620000e-01 -1.758190000e+00  2.900391634e+00  4.232890000e-01
 7.850350000e+00  4.483122800e+01 -4.431520000e+00  2.433850000e+00  2.392280000e-01 -1.746420000e+00  3.005135384e+00  4.428030000e-01
 7.662116000e+00  3.201172200e+01 -3.261793000e+01  9.482160000e-01  4.567220000e-01 -1.245930000e+00  1.630966012e+00  1.647750000e-01
 7.818190000e+00  3.385293900e+01 -3.076003000e+01  1.039890000e+00  4.949390000e-01 -1.327030000e+00  1.757084075e+00  1.805220000e-01
 8.050990000e+00  3.556791700e+01 -2.877624000e+01  1.136290000e+00  5.299170000e-01 -1.398240000e+00  1.878042089e+00  1.972400000e-01
 8.320510000e+00  3.715137200e+01 -2.667786000e+01  1.237510000e+00  5.603720000e-01 -1.459860000e+00  1.994151197e+00  2.151810000e-01
 8.601310000e+00  3.859978500e+01 -2.447305000e+01  1.343610000e+00  5.847850000e-01 -1.512050000e+00  2.105601228e+00  2.344310000e-01
 8.879820000e+00  3.990443700e+01 -2.217384000e+01  1.454620000e+00  6.014370000e-01 -1.554840000e+00  2.212503838e+00  2.550010000e-01
 9.149200000e+00  4.106052600e+01 -1.978820000e+01  1.570500000e+00  6.085260000e-01 -1.588200000e+00  2.314984532e+00  2.767870000e-01
 9.406050000e+00  4.205932300e+01 -1.732611000e+01  1.691050000e+00  6.043230000e-01 -1.612110000e+00  2.413245749e+00  2.995650000e-01
 9.648460000e+00  4.289734400e+01 -1.479857000e+01  1.815860000e+00  5.873440000e-01 -1.626570000e+00  2.507598548e+00  3.229950000e-01
 9.875170000e+00  4.356846400e+01 -1.221667000e+01  1.944270000e+00  5.564640000e-01 -1.631670000e+00  2.598496682e+00  3.466280000e-01
 1.008455000e+01  4.407014600e+01 -9.591700000e+00  2.075350000e+00  5.111460000e-01 -1.627500000e+00  2.686466844e+00  3.699010000e-01
 1.027492000e+01  4.440137300e+01 -6.934440000e+00  2.207820000e+00  4.513730000e-01 -1.614140000e+00  2.771940598e+00  3.917970000e-01
 1.044265000e+01  4.456213800e+01 -4.254240000e+00  2.340150000e+00  3.781380000e-01 -1.591340000e+00  2.855110044e+00  4.103650000e-01
 9.894481000e+00  3.172074800e+01 -3.228564000e+01  9.588810000e-01  4.417480000e-01 -1.191640000e+00  1.592042700e+00  1.563430000e-01
 1.007031000e+01  3.352856500e+01 -3.044469000e+01  1.049310000e+00  4.795650000e-01 -1.266690000e+00  1.713341070e+00  1.707400000e-01
 1.034423000e+01  3.520880900e+01 -2.847328000e+01  1.143630000e+00  5.148090000e-01 -1.331280000e+00  1.828995441e+00  1.858070000e-01
 1.066448000e+01  3.675758600e+01 -2.638494000e+01  1.241780000e+00  5.465860000e-01 -1.385940000e+00  1.939485372e+00  2.018420000e-01
 1.099749000e+01  3.817479100e+01 -2.419100000e+01  1.343690000e+00  5.737910000e-01 -1.431000000e+00  2.045116116e+00  2.189490000e-01
 1.132471000e+01  3.945311400e+01 -2.190059000e+01  1.449210000e+00  5.951140000e-01 -1.466590000e+00  2.145986143e+00  2.371690000e-01
 1.163715000e+01  4.058714900e+01 -1.952571000e+01  1.558150000e+00  6.091490000e-01 -1.492710000e+00  2.242114420e+00  2.564470000e-01
 1.192916000e+01  4.157051400e+01 -1.707631000e+01  1.670160000e+00  6.145140000e-01 -1.509310000e+00  2.333469211e+00  2.766230000e-01
 1.219771000e+01  4.239998700e+01 -1.456236000e+01  1.784710000e+00  6.099870000e-01 -1.516360000e+00  2.420045779e+00  2.974400000e-01
 1.244308000e+01  4.306862400e+01 -1.199492000e+01  1.901080000e+00  5.946240000e-01 -1.513920000e+00  2.501926584e+00  3.185470000e-01
 1.266131000e+01  4.357488200e+01 -9.386030000e+00  2.018310000e+00  5.678820000e-01 -1.502030000e+00  2.579178036e+00  3.394570000e-01
 1.285224000e+01  4.391661300e+01 -6.746470000e+00  2.135240000e+00  5.296130000e-01 -1.480870000e+00  2.651926798e+00  3.593870000e-01
 1.301056000e+01  4.409541500e+01 -4.085430000e+00  2.250560000e+00  4.804150000e-01 -1.450230000e+00  2.720107707e+00  3.768120000e-01
 1.209802300e+01  3.134650600e+01 -3.187671000e+01  9.650230000e-01  4.255060000e-01 -1.136710000e+00  1.550623865e+00  1.483240000e-01
 1.229375000e+01  3.311331600e+01 -3.005980000e+01  1.053750000e+00  4.623160000e-01 -1.205800000e+00  1.666756967e+00  1.614150000e-01
 1.260748000e+01  3.474802100e+01 -2.810595000e+01  1.145480000e+00  4.970210000e-01 -1.263950000e+00  1.776717171e+00  1.748960000e-01
 1.297712000e+01  3.625206000e+01 -2.603194000e+01  1.240120000e+00  5.290600000e-01 -1.311940000e+00  1.881219993e+00  1.891020000e-01
 1.336047000e+01  3.762668200e+01 -2.385232000e+01  1.337470000e+00  5.576820000e-01 -1.350320000e+00  1.980706772e+00  2.041560000e-01
 1.373532000e+01  3.886693000e+01 -2.157933000e+01  1.437320000e+00  5.819300000e-01 -1.379330000e+00  2.075351189e+00  2.201170000e-01
 1.408836000e+01  3.996972700e+01 -1.922102000e+01  1.539360000e+00  6.007270000e-01 -1.399020000e+00  2.165123345e+00  2.369640000e-01
 1.441417000e+01  4.092799100e+01 -1.679137000e+01  1.643170000e+00  6.129910000e-01 -1.409370000e+00  2.249908756e+00  2.545890000e-01
 1.470919000e+01  4.173872800e+01 -1.429838000e+01  1.748190000e+00  6.177280000e-01 -1.410380000e+00  2.329576765e+00  2.728000000e-01
 1.497168000e+01  4.239612500e+01 -1.175405000e+01  1.853680000e+00  6.141250000e-01 -1.402050000e+00  2.403959912e+00  2.913210000e-01
 1.519974000e+01  4.289867000e+01 -9.169790000e+00  1.958740000e+00  6.016700000e-01 -1.384490000e+00  2.472950007e+00  3.097850000e-01
 1.539132000e+01  4.324506500e+01 -6.556770000e+00  2.062320000e+00  5.800650000e-01 -1.357870000e+00  2.536424673e+00  3.276030000e-01
 1.554237000e+01  4.343565800e+01 -3.923710000e+00  2.163370000e+00  5.496580000e-01 -1.322110000e+00  2.594276108e+00  3.435670000e-01
 1.426475400e+01  3.089437900e+01 -3.139247000e+01  9.667540000e-01  4.083790000e-01 -1.081470000e+00  1.506971820e+00  1.407500000e-01
 1.448031000e+01  3.261066700e+01 -2.960474000e+01  1.053310000e+00  4.436670000e-01 -1.144740000e+00  1.617631612e+00  1.525990000e-01
 1.483398000e+01  3.419014300e+01 -2.767267000e+01  1.141980000e+00  4.771430000e-01 -1.196670000e+00  1.721569880e+00  1.645840000e-01
 1.524964000e+01  3.563853200e+01 -2.561934000e+01  1.232640000e+00  5.085320000e-01 -1.238340000e+00  1.819750565e+00  1.770740000e-01
 1.568108000e+01  3.695938200e+01 -2.345950000e+01  1.325080000e+00  5.373820000e-01 -1.270500000e+00  1.912795512e+00  1.902070000e-01
 1.610104000e+01  3.815202600e+01 -2.120654000e+01  1.419040000e+00  5.630260000e-01 -1.293540000e+00  2.000979393e+00  2.040580000e-01
 1.649318000e+01  3.921167500e+01 -1.887359000e+01  1.514180000e+00  5.846750000e-01 -1.307590000e+00  2.084317043e+00  2.186280000e-01
 1.685107000e+01  4.013548500e+01 -1.646970000e+01  1.610070000e+00  6.014850000e-01 -1.312700000e+00  2.162704534e+00  2.338450000e-01
 1.717114000e+01  4.091966300e+01 -1.400586000e+01  1.706140000e+00  6.126630000e-01 -1.308860000e+00  2.235930265e+00  2.495690000e-01
 1.745070000e+01  4.155851800e+01 -1.149313000e+01  1.801700000e+00  6.175180000e-01 -1.296130000e+00  2.303780447e+00  2.655990000e-01
 1.768792000e+01  4.204956000e+01 -8.942210000e+00  1.895920000e+00  6.155600000e-01 -1.274610000e+00  2.366021431e+00  2.816670000e-01
 1.788090000e+01  4.239442000e+01 -6.364310000e+00  1.987900000e+00  6.064200000e-01 -1.244510000e+00  2.422456763e+00  2.973300000e-01
 1.802679000e+01  4.259125900e+01 -3.767590000e+00  2.076790000e+00  5.902590000e-01 -1.205790000e+00  2.472931846e+00  3.116640000e-01
 1.639114300e+01  3.036569800e+01 -3.083418000e+01  9.641430000e-01  3.906980000e-01 -1.026180000e+00  1.461253586e+00  1.336220000e-01
 1.662509000e+01  3.202304700e+01 -2.908080000e+01  1.048090000e+00  4.240470000e-01 -1.083800000e+00  1.566183561e+00  1.443050000e-01
 1.701521000e+01  3.353773500e+01 -2.717577000e+01  1.133210000e+00  4.557350000e-01 -1.129770000e+00  1.663802737e+00  1.548990000e-01
 1.747544000e+01  3.491973000e+01 -2.514549000e+01  1.219440000e+00  4.857300000e-01 -1.165490000e+00  1.755373033e+00  1.658070000e-01
 1.795160000e+01  3.617782400e+01 -2.301093000e+01  1.306600000e+00  5.138240000e-01 -1.191930000e+00  1.841715447e+00  1.771800000e-01
 1.841245000e+01  3.731160100e+01 -2.078561000e+01  1.394450000e+00  5.396010000e-01 -1.209610000e+00  1.923230718e+00  1.891030000e-01
 1.884067000e+01  3.832049200e+01 -1.848278000e+01  1.482670000e+00  5.624920000e-01 -1.218780000e+00  2.000033067e+00  2.015920000e-01
 1.922883000e+01  3.919986500e+01 -1.611254000e+01  1.570830000e+00  5.818650000e-01 -1.219540000e+00  2.072040438e+00  2.146000000e-01
 1.957241000e+01  3.994809100e+01 -1.368595000e+01  1.658410000e+00  5.970910000e-01 -1.211950000e+00  2.139080221e+00  2.280320000e-01
 1.986878000e+01  4.056059400e+01 -1.121207000e+01  1.744780000e+00  6.075940000e-01 -1.196070000e+00  2.200911439e+00  2.417460000e-01
 2.011522000e+01  4.103492500e+01 -8.703020000e+00  1.829220000e+00  6.129250000e-01 -1.172020000e+00  2.257289025e+00  2.555490000e-01
 2.030996000e+01  4.137068600e+01 -6.168340000e+00  1.910960000e+00  6.126860000e-01 -1.140040000e+00  2.307995550e+00  2.691220000e-01
 2.045034000e+01  4.156891900e+01 -3.616020000e+00  1.989340000e+00  6.069190000e-01 -1.100120000e+00  2.352889356e+00  2.817640000e-01
 1.846826100e+01  2.976373600e+01 -3.020404700e+01  9.572610000e-01  3.727360000e-01 -9.710470000e-01  1.413581630e+00  1.269300000e-01
 1.872115000e+01  3.135382500e+01 -2.848920000e+01  1.038150000e+00  4.038250000e-01 -1.023200000e+00  1.512537039e+00  1.365270000e-01
 1.914426000e+01  3.279429900e+01 -2.661552000e+01  1.119260000e+00  4.332990000e-01 -1.063520000e+00  1.603610227e+00  1.458410000e-01
 1.964564000e+01  3.410032300e+01 -2.461368000e+01  1.200640000e+00  4.613230000e-01 -1.093680000e+00  1.688339795e+00  1.553070000e-01
 2.016218000e+01  3.528489900e+01 -2.250888000e+01  1.282180000e+00  4.878990000e-01 -1.114880000e+00  1.767763672e+00  1.650930000e-01
 2.066070000e+01  3.635079800e+01 -2.031781000e+01  1.363700000e+00  5.127980000e-01 -1.127810000e+00  1.842442638e+00  1.752880000e-01
 2.112194000e+01  3.729864300e+01 -1.805182000e+01  1.444940000e+00  5.356430000e-01 -1.132820000e+00  1.912601940e+00  1.859120000e-01
 2.153851000e+01  3.812697000e+01 -1.572206000e+01  1.525510000e+00  5.559700000e-01 -1.130060000e+00  1.978211062e+00  1.969380000e-01
 2.190294000e+01  3.883129600e+01 -1.333864000e+01  1.604940000e+00  5.732960000e-01 -1.119640000e+00  2.039140612e+00  2.083050000e-01
 2.221370000e+01  3.941014900e+01 -1.091237000e+01  1.682700000e+00  5.871490000e-01 -1.101670000e+00  2.095208827e+00  2.199190000e-01
 2.246919000e+01  3.986113600e+01 -8.452280000e+00  1.758190000e+00  5.971360000e-01 -1.076280000e+00  2.146201789e+00  2.316450000e-01
 2.266675000e+01  4.018386800e+01 -5.968290000e+00  1.830750000e+00  6.028680000e-01 -1.043690000e+00  2.191890555e+00  2.432610000e-01
 2.280386000e+01  4.037831500e+01 -3.467940000e+00  1.899860000e+00  6.043150000e-01 -1.003940000e+00  2.232164905e+00  2.542470000e-01
 2.049317400e+01  2.909071800e+01 -2.950221000e+01  9.461740000e-01  3.547180000e-01 -9.162100000e-01  1.364005448e+00  1.206590000e-01
 2.076259000e+01  3.060732900e+01 -2.783212500e+01  1.023590000e+00  3.833290000e-01 -9.631250000e-01  1.456807254e+00  1.292470000e-01
 2.121525000e+01  3.196328700e+01 -2.599310700e+01  1.100250000e+00  4.102870000e-01 -9.981070000e-01  1.541136940e+00  1.373870000e-01
 2.175237000e+01  3.318493700e+01 -2.402512000e+01  1.176370000e+00  4.359370000e-01 -1.023120000e+00  1.618845879e+00  1.455520000e-01
 2.230596000e+01  3.428742800e+01 -2.195559000e+01  1.251960000e+00  4.604280000e-01 -1.039590000e+00  1.691196367e+00  1.539260000e-01
 2.283695000e+01  3.527669900e+01 -1.980333000e+01  1.326950000e+00  4.836990000e-01 -1.048330000e+00  1.758907847e+00  1.625890000e-01
 2.332814000e+01  3.615551100e+01 -1.757982000e+01  1.401140000e+00  5.055110000e-01 -1.049820000e+00  1.822321789e+00  1.715600000e-01
 2.376821000e+01  3.692354800e+01 -1.529827000e+01  1.474210000e+00  5.255480000e-01 -1.044270000e+00  1.881487618e+00  1.808320000e-01
 2.415178000e+01  3.757744800e+01 -1.296584000e+01  1.545780000e+00  5.434480000e-01 -1.031840000e+00  1.936353615e+00  1.903710000e-01
 2.447639000e+01  3.811684100e+01 -1.059355000e+01  1.615390000e+00  5.588410000e-01 -1.012650000e+00  1.986768265e+00  2.001190000e-01
 2.473955000e+01  3.853839400e+01 -8.189863000e+00  1.682550000e+00  5.713940000e-01 -9.868630000e-01  2.032575752e+00  2.099860000e-01
 2.494072000e+01  3.884175700e+01 -5.763778000e+00  1.746720000e+00  5.807570000e-01 -9.546780000e-01  2.073576508e+00  2.198240000e-01
 2.507652000e+01  3.902886300e+01 -3.322349000e+00  1.807520000e+00  5.868630000e-01 -9.161490000e-01  2.109707497e+00  2.292550000e-01
 2.246096100e+01  2.834982500e+01 -2.873179900e+01  9.309610000e-01  3.368250000e-01 -8.617990000e-01  1.312568848e+00  1.148230000e-01
 2.274351000e+01  2.978383200e+01 -2.711072000e+01  1.004510000e+00  3.628320000e-01 -9.037200000e-01  1.399070134e+00  1.224410000e-01
 2.322331000e+01  3.105011300e+01 -2.531268200e+01  1.076310000e+00  3.871130000e-01 -9.336820000e-01  1.476503223e+00  1.294780000e-01
 2.379078000e+01  3.217813000e+01 -2.338296200e+01  1.146780000e+00  4.101300000e-01 -9.539620000e-01  1.547047020e+00  1.364700000e-01
 2.437413000e+01  3.319017700e+01 -2.135315100e+01  1.216130000e+00  4.321770000e-01 -9.661510000e-01  1.612202497e+00  1.435880000e-01
 2.493441000e+01  3.409528500e+01 -1.924425900e+01  1.284410000e+00  4.532850000e-01 -9.712590000e-01  1.672877875e+00  1.508880000e-01
 2.545049000e+01  3.489735500e+01 -1.707082200e+01  1.351490000e+00  4.733550000e-01 -9.698220000e-01  1.729492668e+00  1.584000000e-01
 2.591114000e+01  3.559818400e+01 -1.484213300e+01  1.417140000e+00  4.921840000e-01 -9.621330000e-01  1.782198300e+00  1.661350000e-01
 2.631105000e+01  3.619552100e+01 -1.256836900e+01  1.481050000e+00  5.095210000e-01 -9.483690000e-01  1.830990036e+00  1.740800000e-01
 2.664786000e+01  3.668808300e+01 -1.025628600e+01  1.542860000e+00  5.250830000e-01 -9.286860000e-01  1.875789653e+00  1.822040000e-01
 2.691919000e+01  3.707460400e+01 -7.915831000e+00  1.602190000e+00  5.386040000e-01 -9.032310000e-01  1.916489839e+00  1.904490000e-01
 2.712359000e+01  3.735478600e+01 -5.554304000e+00  1.658590000e+00  5.497860000e-01 -8.722040000e-01  1.952927354e+00  1.987170000e-01
 2.725879000e+01  3.752955000e+01 -3.178368000e+00  1.711790000e+00  5.585500000e-01 -8.356680000e-01  1.985080379e+00  2.067420000e-01
 2.434091400e+01  2.755338900e+01 -2.790759900e+01  9.119140000e-01  3.193890000e-01 -8.085990000e-01  1.259932069e+00  1.095530000e-01
 2.463034600e+01  2.888148500e+01 -2.636337900e+01  9.803460000e-01  3.424850000e-01 -8.453790000e-01  1.339044401e+00  1.160870000e-01
 2.513423000e+01  3.003777000e+01 -2.462435500e+01  1.046230000e+00  3.637700000e-01 -8.703550000e-01  1.408702826e+00  1.220020000e-01
 2.573145000e+01  3.106196200e+01 -2.274117100e+01  1.110450000e+00  3.839620000e-01 -8.861710000e-01  1.471674237e+00  1.278850000e-01
 2.634432000e+01  3.197730800e+01 -2.075660400e+01  1.173320000e+00  4.033080000e-01 -8.946040000e-01  1.529592587e+00  1.338430000e-01
 2.693084000e+01  3.279394600e+01 -1.869567700e+01  1.234840000e+00  4.219460000e-01 -8.966770000e-01  1.583318633e+00  1.399260000e-01
 2.746892000e+01  3.351685000e+01 -1.657195600e+01  1.294920000e+00  4.398500000e-01 -8.929560000e-01  1.633296130e+00  1.461680000e-01
 2.794939000e+01  3.414690400e+01 -1.439875900e+01  1.353390000e+00  4.569040000e-01 -8.837590000e-01  1.679718943e+00  1.525870000e-01
 2.836501000e+01  3.468393800e+01 -1.218228400e+01  1.410010000e+00  4.729380000e-01 -8.692840000e-01  1.722629741e+00  1.591800000e-01
 2.871449000e+01  3.512774700e+01 -9.932292000e+00  1.464490000e+00  4.877470000e-01 -8.496920000e-01  1.761988817e+00  1.659320000e-01
 2.899454000e+01  3.547712400e+01 -7.655132000e+00  1.516540000e+00  5.011240000e-01 -8.251320000e-01  1.797737927e+00  1.728080000e-01
 2.920382000e+01  3.573082700e+01 -5.358182000e+00  1.565820000e+00  5.128270000e-01 -7.957820000e-01  1.829768509e+00  1.797450000e-01
 2.934211000e+01  3.588976900e+01 -3.047515000e+00  1.612110000e+00  5.227690000e-01 -7.617150000e-01  1.858062383e+00  1.865570000e-01
 2.595758400e+01  2.680847600e+01 -2.711134400e+01  8.925840000e-01  3.044760000e-01 -7.623440000e-01  1.212674815e+00  1.050910000e-01
 2.628470100e+01  2.790151400e+01 -2.574121400e+01  9.497010000e-01  3.225140000e-01 -7.902140000e-01  1.276865473e+00  1.102380000e-01
 2.684955000e+01  2.888380300e+01 -2.409750400e+01  1.006550000e+00  3.398030000e-01 -8.085040000e-01  1.335023483e+00  1.148330000e-01
 2.750060000e+01  2.978467800e+01 -2.226981600e+01  1.063600000e+00  3.566780000e-01 -8.198160000e-01  1.389446807e+00  1.195780000e-01
 2.815694000e+01  3.060218600e+01 -2.032407600e+01  1.119940000e+00  3.731860000e-01 -8.250760000e-01  1.440237411e+00  1.244810000e-01
 2.878009000e+01  3.133528600e+01 -1.829787600e+01  1.175090000e+00  3.892860000e-01 -8.248760000e-01  1.487548491e+00  1.295300000e-01
 2.934978000e+01  3.198493000e+01 -1.621263000e+01  1.228780000e+00  4.049300000e-01 -8.196300000e-01  1.531555396e+00  1.347200000e-01
 2.985580000e+01  3.255102800e+01 -1.407760600e+01  1.280800000e+00  4.200280000e-01 -8.096060000e-01  1.572365745e+00  1.400570000e-01
 3.029394000e+01  3.303445600e+01 -1.190299200e+01  1.330940000e+00  4.344560000e-01 -7.949920000e-01  1.610020366e+00  1.455420000e-01
 3.066097000e+01  3.343306400e+01 -9.696345000e+00  1.378970000e+00  4.480640000e-01 -7.759450000e-01  1.644509122e+00  1.511700000e-01
 3.095367000e+01  3.374669000e+01 -7.464007000e+00  1.424670000e+00  4.606900000e-01 -7.526070000e-01  1.675809411e+00  1.569180000e-01
 3.117375000e+01  3.397513800e+01 -5.212640000e+00  1.467750000e+00  4.721380000e-01 -7.251400000e-01  1.703828739e+00  1.627510000e-01
 3.131811000e+01  3.411733100e+01 -2.944165000e+00  1.508110000e+00  4.823310000e-01 -6.935650000e-01  1.728603880e+00  1.685400000e-01
 2.702380100e+01  2.627448700e+01 -2.654608100e+01  8.778010000e-01  2.944870000e-01 -7.310810000e-01  1.179718872e+00  1.021360000e-01
 2.756664900e+01  2.681478300e+01 -2.546796400e+01  9.096490000e-01  3.027830000e-01 -7.389640000e-01  1.210457204e+00  1.043600000e-01
 2.828494900e+01  2.753751600e+01 -2.391890400e+01  9.539490000e-01  3.145160000e-01 -7.479040000e-01  1.252317612e+00  1.075430000e-01
 2.903634000e+01  2.830285800e+01 -2.212069200e+01  1.003340000e+00  3.278580000e-01 -7.546920000e-01  1.297590859e+00  1.112430000e-01
 2.976574000e+01  2.903165000e+01 -2.018646900e+01  1.053740000e+00  3.416500000e-01 -7.574690000e-01  1.341958269e+00  1.152930000e-01
 3.044639000e+01  2.969539600e+01 -1.816680000e+01  1.103390000e+00  3.553960000e-01 -7.558000000e-01  1.383838664e+00  1.195280000e-01
 3.106368000e+01  3.028593200e+01 -1.608776200e+01  1.151680000e+00  3.689320000e-01 -7.497620000e-01  1.422891668e+00  1.238930000e-01
 3.161032000e+01  3.080215600e+01 -1.396052200e+01  1.198320000e+00  3.821560000e-01 -7.395220000e-01  1.459077386e+00  1.283810000e-01
 3.208110000e+01  3.124096600e+01 -1.179423000e+01  1.243100000e+00  3.949660000e-01 -7.252300000e-01  1.492398842e+00  1.329940000e-01
 3.247582000e+01  3.160324400e+01 -9.596234000e+00  1.285820000e+00  4.072440000e-01 -7.070340000e-01  1.522851872e+00  1.377320000e-01
 3.279029000e+01  3.188786000e+01 -7.373470000e+00  1.326290000e+00  4.188600000e-01 -6.850700000e-01  1.550422448e+00  1.425840000e-01
 3.302529000e+01  3.209366500e+01 -5.131074000e+00  1.364290000e+00  4.296650000e-01 -6.594740000e-01  1.575057197e+00  1.475260000e-01
 3.317972000e+01  3.222056600e+01 -2.871982000e+00  1.399720000e+00  4.395660000e-01 -6.302820000e-01  1.596774795e+00  1.524740000e-01
 3.414560700e+00  3.391645400e+00 -4.481266480e+01  6.736070000e-02  4.444540000e-02 -6.266480000e-02  1.021750197e-01  9.255780000e-02
 3.284355000e+00  6.233176300e+00 -4.459489700e+01  1.289550000e-01  8.737630000e-02 -1.278970000e-01  2.015481393e-01  9.089270000e-02
 3.152216000e+00  8.847264000e+00 -4.426233300e+01  1.891160000e-01  1.214640000e-01 -2.163330000e-01  3.119588621e-01  8.416810000e-02
 3.082354000e+00  1.140763900e+01 -4.379457400e+01  2.509540000e-01  1.516390000e-01 -3.175740000e-01  4.322332032e-01  8.399290000e-02
 3.051715000e+00  1.395038000e+01 -4.318257000e+01  3.147150000e-01  1.813800000e-01 -4.285700000e-01  5.617975441e-01  8.809160000e-02
 3.041845000e+00  1.647007500e+01 -4.242224700e+01  3.807450000e-01  2.120750000e-01 -5.462470000e-01  6.988049411e-01  9.476070000e-02
 3.041629000e+00  1.895088400e+01 -4.151332100e+01  4.488290000e-01  2.448840000e-01 -6.673210000e-01  8.406741115e-01  1.032150000e-01
 3.045310000e+00  2.138021000e+01 -4.045526500e+01  5.190100000e-01  2.802100000e-01 -7.892650000e-01  9.853061780e-01  1.130730000e-01
 3.050223000e+00  2.374507000e+01 -3.925194500e+01  5.914230000e-01  3.180700000e-01 -9.099450000e-01  1.130906536e+00  1.241980000e-01
 3.055603000e+00  2.603306700e+01 -3.790773000e+01  6.664030000e-01  3.580670000e-01 -1.027730000e+00  1.276140230e+00  1.366090000e-01
 3.066500000e+00  2.823343200e+01 -3.642430000e+01  7.445000000e-01  3.994320000e-01 -1.141300000e+00  1.419997135e+00  1.503940000e-01
 3.098987000e+00  3.033794100e+01 -3.480532000e+01  8.265870000e-01  4.409410000e-01 -1.249320000e+00  1.561561877e+00  1.655980000e-01
 6.208167200e+00  3.197813600e+00 -4.452185580e+01  6.236720000e-02  4.241360000e-02 -5.485580000e-02  9.326167431e-02  8.830440000e-02
 6.229679000e+00  6.189423800e+00 -4.428457500e+01  1.267790000e-01  8.652380000e-02 -1.195750000e-01  1.945699448e-01  8.688720000e-02
 6.077807000e+00  8.906276000e+00 -4.394836400e+01  1.916070000e-01  1.203760000e-01 -2.083640000e-01  3.076023087e-01  7.969790000e-02
 5.934201000e+00  1.149517000e+01 -4.348318700e+01  2.566010000e-01  1.491700000e-01 -3.081870000e-01  4.278726318e-01  7.940980000e-02
 5.825036000e+00  1.402852800e+01 -4.287593000e+01  3.232360000e-01  1.775280000e-01 -4.159300000e-01  5.558736074e-01  8.344390000e-02
 5.741245000e+00  1.652582200e+01 -4.212339800e+01  3.918450000e-01  2.068220000e-01 -5.293980000e-01  6.903478008e-01  9.006400000e-02
 5.671121000e+00  1.898322300e+01 -4.122283000e+01  4.624210000e-01  2.382230000e-01 -6.458300000e-01  8.292645946e-01  9.837620000e-02
 5.606194000e+00  2.138820800e+01 -4.017594000e+01  5.348940000e-01  2.722080000e-01 -7.629400000e-01  9.707142886e-01  1.079450000e-01
 5.541301000e+00  2.372986300e+01 -3.898577600e+01  6.093010000e-01  3.088630000e-01 -8.787760000e-01  1.113054949e+00  1.186290000e-01
 5.475341000e+00  2.599688600e+01 -3.765479800e+01  6.858410000e-01  3.478860000e-01 -9.917980000e-01  1.255016262e+00  1.304490000e-01
 5.419713000e+00  2.817760700e+01 -3.618763000e+01  7.650130000e-01  3.886070000e-01 -1.100630000e+00  1.395581129e+00  1.434970000e-01
 5.404484000e+00  3.026186700e+01 -3.458469000e+01  8.476840000e-01  4.298670000e-01 -1.203690000e+00  1.533695999e+00  1.578010000e-01
 8.783297100e+00  3.002379800e+00 -4.409479790e+01  5.749710000e-02  3.927980000e-02 -4.879790000e-02  8.502972563e-02  8.401300000e-02
 8.906477000e+00  5.969590900e+00 -4.384803700e+01  1.205770000e-01  8.339090000e-02 -1.080370000e-01  1.821121866e-01  8.236250000e-02
 8.812030000e+00  8.740884000e+00 -4.351028200e+01  1.882300000e-01  1.170840000e-01 -1.942820000e-01  2.947620930e-01  7.453060000e-02
 8.666831000e+00  1.137533500e+01 -4.304903000e+01  2.566310000e-01  1.453350000e-01 -2.920300000e-01  4.150460857e-01  7.422400000e-02
 8.524534000e+00  1.392950100e+01 -4.245119800e+01  3.264340000e-01  1.725010000e-01 -3.971980000e-01  5.422932809e-01  7.849170000e-02
 8.392997000e+00  1.643048700e+01 -4.171025800e+01  3.979970000e-01  2.004870000e-01 -5.072580000e-01  6.752090993e-01  8.528270000e-02
 8.267533000e+00  1.888049500e+01 -4.082377300e+01  4.712330000e-01  2.304950000e-01 -6.197730000e-01  8.119772514e-01  9.358070000e-02
 8.142164000e+00  2.127508800e+01 -3.979466500e+01  5.460640000e-01  2.630880000e-01 -7.326650000e-01  9.508938900e-01  1.029320000e-01
 8.012035000e+00  2.360243600e+01 -3.862416700e+01  6.224350000e-01  2.984360000e-01 -8.441670000e-01  1.090461966e+00  1.132120000e-01
 7.877668000e+00  2.585332500e+01 -3.731684800e+01  7.004680000e-01  3.363250000e-01 -9.528480000e-01  1.229507721e+00  1.244570000e-01
 7.758189000e+00  2.801817000e+01 -3.587427000e+01  7.805890000e-01  3.761700000e-01 -1.057270000e+00  1.366983141e+00  1.367610000e-01
 7.697833000e+00  3.008383300e+01 -3.429459000e+01  8.636330000e-01  4.168330000e-01 -1.155590000e+00  1.501665727e+00  1.501430000e-01
 1.131005990e+01  2.868729100e+00 -4.352135570e+01  5.405990000e-02  3.732910000e-02 -4.435570000e-02  7.926766439e-02  8.020100000e-02
 1.146039600e+01  5.757787000e+00 -4.327328190e+01  1.143960000e-01  8.018700000e-02 -9.828190000e-02  1.708090503e-01  7.836810000e-02
 1.141293000e+01  8.523639000e+00 -4.293716100e+01  1.829300000e-01  1.134390000e-01 -1.801610000e-01  2.806951684e-01  6.982470000e-02
 1.128675100e+01  1.117403400e+01 -4.248263000e+01  2.537510000e-01  1.410340000e-01 -2.746300000e-01  3.996270712e-01  6.917080000e-02
 1.113533400e+01  1.374119900e+01 -4.189656600e+01  3.263340000e-01  1.671990000e-01 -3.765660000e-01  5.255961734e-01  7.356630000e-02
 1.097658800e+01  1.624489100e+01 -4.117108900e+01  4.005880000e-01  1.938910000e-01 -4.830890000e-01  6.568405039e-01  8.056600000e-02
 1.081032500e+01  1.868947800e+01 -4.030570800e+01  4.763250000e-01  2.224780000e-01 -5.917080000e-01  7.915177341e-01  8.891580000e-02
 1.063434100e+01  2.107359400e+01 -3.929947900e+01  5.533410000e-01  2.535940000e-01 -7.004790000e-01  9.279908451e-01  9.810810000e-02
 1.044591700e+01  2.338849600e+01 -3.815777000e+01  6.315170000e-01  2.874960000e-01 -8.077700000e-01  1.064875600e+00  1.080280000e-01
 1.024818100e+01  2.562505500e+01 -3.688324000e+01  7.108810000e-01  3.240550000e-01 -9.122400000e-01  1.201060055e+00  1.187310000e-01
 1.006887100e+01  2.777274200e+01 -3.547436000e+01  7.917710000e-01  3.627420000e-01 -1.012360000e+00  1.335423470e+00  1.303160000e-01
 9.966745000e+00  2.981643000e+01 -3.392601000e+01  8.749450000e-01  4.024300000e-01 -1.106010000e+00  1.466539048e+00  1.427980000e-01
 1.382045120e+01  2.773047600e+00 -4.279489750e+01  5.145120000e-02  3.594760000e-02 -4.089750000e-02  7.491369323e-02  7.662760000e-02
 1.396004500e+01  5.579349400e+00 -4.255030100e+01  1.090450000e-01  7.754940000e-02 -9.030100000e-02  1.614279780e-01  7.464370000e-02
 1.393430100e+01  8.308123000e+00 -4.222147100e+01  1.773010000e-01  1.100230000e-01 -1.674710000e-01  2.675579208e-01  6.546180000e-02
 1.382353200e+01  1.094586900e+01 -4.177783200e+01  2.495320000e-01  1.368690000e-01 -2.578320000e-01  3.840269293e-01  6.439510000e-02
 1.367016300e+01  1.350799700e+01 -4.120689400e+01  3.241630000e-01  1.619970000e-01 -3.558940000e-01  5.079224526e-01  6.882160000e-02
 1.349161700e+01  1.600342900e+01 -4.050244200e+01  4.006170000e-01  1.874290000e-01 -4.584420000e-01  6.370185854e-01  7.600560000e-02
 1.329244000e+01  1.843656200e+01 -3.966193900e+01  4.784400000e-01  2.145620000e-01 -5.629390000e-01  7.693126823e-01  8.443490000e-02
 1.307331000e+01  2.080612900e+01 -3.868847100e+01  5.573100000e-01  2.441290000e-01 -6.674710000e-01  9.031671720e-01  9.351080000e-02
 1.283300000e+01  2.310446100e+01 -3.758251700e+01  6.370000000e-01  2.764610000e-01 -7.705170000e-01  1.037254131e+00  1.031130000e-01
 1.257744500e+01  2.532451000e+01 -3.634878700e+01  7.174450000e-01  3.115100000e-01 -8.707870000e-01  1.170485287e+00  1.133110000e-01
 1.234285900e+01  2.745178800e+01 -3.498363600e+01  7.988590000e-01  3.487880000e-01 -9.666360000e-01  1.301619732e+00  1.242110000e-01
 1.220188100e+01  2.946916100e+01 -3.347565000e+01  8.818810000e-01  3.871610000e-01 -1.055650000e+00  1.428987285e+00  1.358300000e-01
 1.630720890e+01  2.696017400e+00 -4.191408780e+01  4.920890000e-02  3.491740000e-02 -3.808780000e-02  7.135419519e-02  7.331180000e-02
 1.642326800e+01  5.424717300e+00 -4.167764100e+01  1.042680000e-01  7.531730000e-02 -8.364100000e-02  1.534285775e-01  7.116560000e-02
 1.640172800e+01  8.101993000e+00 -4.135916600e+01  1.717280000e-01  1.069930000e-01 -1.561660000e-01  2.555891774e-01  6.131440000e-02
 1.629555900e+01  1.070899400e+01 -4.093004700e+01  2.445590000e-01  1.329940000e-01 -2.420470000e-01  3.688946445e-01  5.984090000e-02
 1.613653300e+01  1.324808700e+01 -4.037974700e+01  3.205330000e-01  1.570870000e-01 -3.357470000e-01  4.900446691e-01  6.428040000e-02
 1.594058900e+01  1.572325300e+01 -3.970094200e+01  3.985890000e-01  1.812530000e-01 -4.339420000e-01  6.164669499e-01  7.163340000e-02
 1.571301400e+01  1.813593100e+01 -3.889403800e+01  4.780140000e-01  2.069310000e-01 -5.340380000e-01  7.459989332e-01  8.015480000e-02
 1.545431600e+01  2.048290000e+01 -3.795817000e+01  5.583160000e-01  2.349000000e-01 -6.341700000e-01  8.769642836e-01  8.914640000e-02
 1.516716900e+01  2.276056900e+01 -3.689788400e+01  6.391690000e-01  2.655690000e-01 -7.328840000e-01  1.008058957e+00  9.846970000e-02
 1.485739700e+01  2.495796000e+01 -3.571492800e+01  7.203970000e-01  2.989600000e-01 -8.289280000e-01  1.138187396e+00  1.082030000e-01
 1.457206100e+01  2.706161500e+01 -3.440251100e+01  8.020610000e-01  3.346150000e-01 -9.205110000e-01  1.265942158e+00  1.184590000e-01
 1.439762500e+01  2.904738400e+01 -3.294392000e+01  8.846250000e-01  3.713840000e-01 -1.004920000e+00  1.389370963e+00  1.292590000e-01
 1.875313210e+01  2.626839300e+00 -4.088172860e+01  4.713210000e-02  3.403930000e-02 -3.572860000e-02  6.823959007e-02  7.025980000e-02
 1.884477630e+01  5.282062700e+00 -4.065491930e+01  9.977630000e-02  7.336270000e-02 -7.791930000e-02  1.463175079e-01  6.796670000e-02
 1.881614800e+01  7.900544000e+00 -4.034994600e+01  1.661480000e-01  1.042440000e-01 -1.459460000e-01  2.444835462e-01  5.738680000e-02
 1.870599600e+01  1.046342200e+01 -3.994116800e+01  2.389960000e-01  1.294220000e-01 -2.271680000e-01  3.542237179e-01  5.546370000e-02
 1.853766600e+01  1.296649000e+01 -3.941520800e+01  3.156660000e-01  1.524900000e-01 -3.162080000e-01  4.721077450e-01  5.990840000e-02
 1.832374500e+01  1.541041900e+01 -3.876974900e+01  3.947450000e-01  1.754190000e-01 -4.097490000e-01  5.953903624e-01  6.743470000e-02
 1.806825400e+01  1.779264900e+01 -3.800122500e+01  4.752540000e-01  1.996490000e-01 -5.052250000e-01  7.217883265e-01  7.606310000e-02
 1.777454800e+01  2.011100600e+01 -3.711280600e+01  5.565480000e-01  2.260060000e-01 -6.008060000e-01  8.495835674e-01  8.499990000e-02
 1.744218700e+01  2.236095200e+01 -3.610611300e+01  6.381870000e-01  2.549520000e-01 -6.951130000e-01  9.774790290e-01  9.408260000e-02
 1.708388300e+01  2.453257800e+01 -3.498291100e+01  7.198830000e-01  2.865780000e-01 -7.869110000e-01  1.104349313e+00  1.033920000e-01
 1.675150400e+01  2.660644400e+01 -3.373224600e+01  8.015040000e-01  3.204440000e-01 -8.742460000e-01  1.228576041e+00  1.130480000e-01
 1.654529600e+01  2.855537500e+01 -3.233009300e+01  8.832960000e-01  3.553750000e-01 -9.540930000e-01  1.347885999e+00  1.230790000e-01
 2.114513210e+01  2.559628600e+00 -3.969972440e+01  4.513210000e-02  3.322860000e-02 -3.372440000e-02  6.540933774e-02  6.749220000e-02
 2.121138760e+01  5.142841700e+00 -3.948587980e+01  9.538760000e-02  7.154170000e-02 -7.287980000e-02  1.397443177e-01  6.509120000e-02
 2.117243500e+01  7.697778000e+00 -3.919854400e+01  1.604350000e-01  1.016780000e-01 -1.365440000e-01  2.339274863e-01  5.373660000e-02
 2.105282300e+01  1.020707500e+01 -3.881202700e+01  2.328230000e-01  1.260750000e-01 -2.130270000e-01  3.398263640e-01  5.127930000e-02
 2.087162500e+01  1.266417800e+01 -3.831820800e+01  3.096250000e-01  1.481780000e-01 -2.972080000e-01  4.540451030e-01  5.568610000e-02
 2.063716500e+01  1.506691500e+01 -3.770989000e+01  3.891650000e-01  1.699150000e-01 -3.858900000e-01  5.737870655e-01  6.338410000e-02
 2.035525400e+01  1.741073500e+01 -3.698857200e+01  4.702540000e-01  1.927350000e-01 -4.765720000e-01  6.967111854e-01  7.213510000e-02
 2.002709500e+01  1.969248700e+01 -3.615449100e+01  5.520950000e-01  2.174870000e-01 -5.674910000e-01  8.210697408e-01  8.104730000e-02
 1.965514600e+01  2.190868500e+01 -3.520933700e+01  6.341460000e-01  2.446850000e-01 -6.573370000e-01  9.455706373e-01  8.993120000e-02
 1.925099400e+01  2.404847500e+01 -3.415488400e+01  7.159940000e-01  2.744750000e-01 -7.448840000e-01  1.069035129e+00  9.886190000e-02
 1.887628400e+01  2.608942900e+01 -3.297500300e+01  7.972840000e-01  3.064290000e-01 -8.280030000e-01  1.189600553e+00  1.079630000e-01
 1.864198700e+01  2.799634700e+01 -3.163635800e+01  8.779870000e-01  3.393470000e-01 -9.033580000e-01  1.304635288e+00  1.172750000e-01
 2.347019310e+01  2.491227900e+00 -3.837400180e+01  4.319310000e-02  3.242790000e-02 -3.200180000e-02  6.277999514e-02  6.503200000e-02
 2.351201680e+01  5.001764500e+00 -3.817536070e+01  9.101680000e-02  6.976450000e-02 -6.836070000e-02  1.335077850e-01  6.258280000e-02
 2.345848800e+01  7.488802600e+00 -3.790776900e+01  1.544880000e-01  9.920260000e-02 -1.277690000e-01  2.236797160e-01  5.043960000e-02
 2.332698800e+01  9.937285000e+00 -3.754948200e+01  2.259880000e-01  1.228850000e-01 -1.994820000e-01  3.255216854e-01  4.734300000e-02
 2.313039800e+01  1.234009700e+01 -3.709068100e+01  3.023980000e-01  1.440970000e-01 -2.786810000e-01  4.357425795e-01  5.163050000e-02
 2.287686700e+01  1.469271400e+01 -3.652735500e+01  3.818670000e-01  1.647140000e-01 -3.623550000e-01  5.515924705e-01  5.947580000e-02
 2.256904100e+01  1.699017600e+01 -3.585911800e+01  4.630410000e-01  1.861760000e-01 -4.481180000e-01  6.707296121e-01  6.835630000e-02
 2.220899400e+01  1.923035700e+01 -3.508629400e+01  5.449940000e-01  2.093570000e-01 -5.342940000e-01  7.914031159e-01  7.727060000e-02
 2.179909200e+01  2.140681000e+01 -3.421264200e+01  6.270920000e-01  2.348100000e-01 -6.196420000e-01  9.123246794e-01  8.600110000e-02
 2.135478700e+01  2.351072100e+01 -3.323394800e+01  7.087870000e-01  2.627210000e-01 -7.029480000e-01  1.032248626e+00  9.460830000e-02
 2.094146300e+01  2.551268200e+01 -3.213290000e+01  7.894630000e-01  2.926820000e-01 -7.819000000e-01  1.149035331e+00  1.032010000e-01
 2.068177800e+01  2.737246100e+01 -3.086684300e+01  8.687780000e-01  3.234610000e-01 -8.528430000e-01  1.259660039e+00  1.118360000e-01
 2.571533620e+01  2.420205400e+00 -3.691050330e+01  4.133620000e-02  3.160540000e-02 -3.050330000e-02  6.031611767e-02  6.288910000e-02
 2.573464460e+01  4.855780800e+00 -3.672825110e+01  8.664460000e-02  6.798080000e-02 -6.425110000e-02  1.275024695e-01  6.045090000e-02
 2.566525300e+01  7.270664600e+00 -3.648449800e+01  1.482530000e-01  9.676460000e-02 -1.194980000e-01  2.135933328e-01  4.755270000e-02
 2.552044200e+01  9.652109000e+00 -3.615844400e+01  2.184420000e-01  1.198090000e-01 -1.864440000e-01  3.111791590e-01  4.372590000e-02
 2.530796000e+01  1.199321200e+01 -3.574058400e+01  2.939600000e-01  1.402120000e-01 -2.605840000e-01  4.171041927e-01  4.779840000e-02
 2.503384500e+01  1.428878500e+01 -3.522815200e+01  3.728450000e-01  1.597850000e-01 -3.391520000e-01  5.287425833e-01  5.575380000e-02
 2.470261900e+01  1.653395600e+01 -3.461890900e+01  4.536190000e-01  1.799560000e-01 -4.199090000e-01  6.437996019e-01  6.476350000e-02
 2.431426100e+01  1.872461100e+01 -3.391528600e+01  5.352610000e-01  2.016110000e-01 -5.012860000e-01  7.605517650e-01  7.370390000e-02
 2.387104600e+01  2.085733800e+01 -3.311811900e+01  6.170460000e-01  2.253380000e-01 -5.821190000e-01  8.777160763e-01  8.232450000e-02
 2.338930800e+01  2.292036400e+01 -3.222519000e+01  6.983080000e-01  2.513640000e-01 -6.611900000e-01  9.939769311e-01  9.067780000e-02
 2.294211400e+01  2.487926400e+01 -3.120903600e+01  7.781140000e-01  2.792640000e-01 -7.360360000e-01  1.106886973e+00  9.883150000e-02
 2.266073400e+01  2.668582200e+01 -3.002167800e+01  8.557340000e-01  3.078220000e-01 -8.026780000e-01  1.212982701e+00  1.068160000e-01
 2.787163270e+01  2.347694900e+00 -3.531419890e+01  3.963270000e-02  3.079490000e-02 -2.919890000e-02  5.806593267e-02  6.103950000e-02
 2.786841270e+01  4.708840100e+00 -3.515158230e+01  8.241270000e-02  6.624010000e-02 -6.058230000e-02  1.218598336e-01  5.862250000e-02
 2.778197800e+01  7.052169700e+00 -3.493491600e+01  1.419780000e-01  9.446970000e-02 -1.119160000e-01  2.039790866e-01  4.506400000e-02
 2.762064200e+01  9.365967000e+00 -3.464331300e+01  2.106420000e-01  1.169670000e-01 -1.743130000e-01  2.973825032e-01  4.050310000e-02
 2.739100100e+01  1.164367300e+01 -3.427058100e+01  2.850010000e-01  1.366730000e-01 -2.435810000e-01  3.990448377e-01  4.432700000e-02
 2.709703400e+01  1.388032600e+01 -3.381221200e+01  3.630340000e-01  1.553260000e-01 -3.172120000e-01  5.065010408e-01  5.238500000e-02
 2.674017000e+01  1.607233600e+01 -3.326714100e+01  4.431700000e-01  1.743360000e-01 -3.931410000e-01  6.175374771e-01  6.153570000e-02
 2.632430900e+01  1.821360300e+01 -3.263591300e+01  5.243090000e-01  1.946030000e-01 -4.699130000e-01  7.304714113e-01  7.053290000e-02
 2.584865400e+01  2.030174500e+01 -3.192143900e+01  6.056540000e-01  2.167450000e-01 -5.464390000e-01  8.440324303e-01  7.909250000e-02
 2.533139900e+01  2.232402200e+01 -3.111650700e+01  6.863990000e-01  2.410220000e-01 -6.215070000e-01  9.568208520e-01  8.725760000e-02
 2.485132300e+01  2.424000800e+01 -3.019145100e+01  7.653230000e-01  2.670080000e-01 -6.924510000e-01  1.066067987e+00  9.507060000e-02
 2.452935900e+01  2.600055600e+01 -2.909356100e+01  8.413590000e-01  2.935560000e-01 -7.555610000e-01  1.168303264e+00  1.024470000e-01
 2.993134070e+01  2.289010600e+00 -3.358920660e+01  3.834070000e-02  3.011060000e-02 -2.820660000e-02  5.632290646e-02  5.949180000e-02
 2.990498700e+01  4.593198200e+00 -3.344787290e+01  7.898700000e-02  6.489820000e-02 -5.787290000e-02  1.174733803e-01  5.704110000e-02
 2.979902800e+01  6.882431500e+00 -3.325814700e+01  1.370280000e-01  9.273150000e-02 -1.061470000e-01  1.965782020e-01  4.291370000e-02
 2.961771600e+01  9.145846000e+00 -3.300289200e+01  2.047160000e-01  1.148460000e-01 -1.648920000e-01  2.868581811e-01  3.772060000e-02
 2.936546100e+01  1.137706200e+01 -3.267319500e+01  2.784610000e-01  1.340620000e-01 -2.301950000e-01  3.853607224e-01  4.138420000e-02
 2.904419600e+01  1.357206000e+01 -3.226678600e+01  3.561960000e-01  1.520600000e-01 -2.997860000e-01  4.897647188e-01  4.962100000e-02
 2.865624700e+01  1.572524600e+01 -3.178275500e+01  4.362470000e-01  1.702460000e-01 -3.717550000e-01  5.979104662e-01  5.897470000e-02
 2.820344200e+01  1.783253000e+01 -3.122175900e+01  5.174420000e-01  1.895300000e-01 -4.447590000e-01  7.081514050e-01  6.809060000e-02
 2.768689900e+01  1.989055600e+01 -3.058277200e+01  5.988990000e-01  2.105560000e-01 -5.177720000e-01  8.192079622e-01  7.666140000e-02
 2.712567400e+01  2.188359900e+01 -2.986156100e+01  6.796740000e-01  2.335990000e-01 -5.895610000e-01  9.295737796e-01  8.471570000e-02
 2.658440500e+01  2.377534000e+01 -2.902974500e+01  7.584050000e-01  2.583400000e-01 -6.577450000e-01  1.036603195e+00  9.224830000e-02
 2.616614300e+01  2.545691600e+01 -2.809205800e+01  8.311430000e-01  2.829160000e-01 -7.170580000e-01  1.133583841e+00  9.904100000e-02
 3.189075910e+01  2.272854900e+00 -3.173579800e+01  3.775910000e-02  3.005490000e-02 -2.779800000e-02  5.569358537e-02  5.818670000e-02
 3.184359220e+01  4.559066400e+00 -3.161195450e+01  7.759220000e-02  6.456640000e-02 -5.695450000e-02  1.159016160e-01  5.562500000e-02
 3.171349200e+01  6.830498500e+00 -3.144664000e+01  1.354920000e-01  9.219850000e-02 -1.036400000e-01  1.939069237e-01  4.114660000e-02
 3.150562300e+01  9.078105000e+00 -3.122222500e+01  2.036230000e-01  1.141050000e-01 -1.602250000e-01  2.831153966e-01  3.565400000e-02
 3.122118400e+01  1.129607000e+01 -3.093009200e+01  2.781840000e-01  1.330700000e-01 -2.230920000e-01  3.806100409e-01  3.940150000e-02
 3.086300700e+01  1.347977800e+01 -3.056710400e+01  3.570070000e-01  1.507780000e-01 -2.901040000e-01  4.840953771e-01  4.791460000e-02
 3.043130700e+01  1.562462500e+01 -3.013349600e+01  4.383070000e-01  1.686250000e-01 -3.594960000e-01  5.914260654e-01  5.750370000e-02
 2.992880100e+01  1.772553400e+01 -2.962999200e+01  5.208010000e-01  1.875340000e-01 -4.299920000e-01  7.009249623e-01  6.676790000e-02
 2.935447000e+01  1.977614700e+01 -2.905660100e+01  6.034700000e-01  2.081470000e-01 -5.006010000e-01  8.112352160e-01  7.540140000e-02
 2.872419800e+01  2.176073800e+01 -2.841414900e+01  6.851980000e-01  2.307380000e-01 -5.701490000e-01  9.207639253e-01  8.343950000e-02
 2.807519300e+01  2.361664900e+01 -2.771489300e+01  7.631930000e-01  2.546490000e-01 -6.358930000e-01  1.025509423e+00  9.085040000e-02
 2.747241400e+01  2.520661800e+01 -2.703264800e+01  8.314140000e-01  2.776180000e-01 -6.926480000e-01  1.117176014e+00  9.739150000e-02
 3.492117000e+01  3.020738900e+01 -2.824122000e+00  1.287170000e+00  3.963890000e-01 -5.709220000e-01  1.462833818e+00  1.380770000e-01
 3.653652000e+01  2.808421200e+01 -2.811911000e+00  1.170520000e+00  3.542120000e-01 -5.148110000e-01  1.326881147e+00  1.251290000e-01
 3.802134000e+01  2.586116500e+01 -2.814698000e+00  1.050340000e+00  3.141650000e-01 -4.609980000e-01  1.189299339e+00  1.134250000e-01
 3.936919600e+01  2.354498200e+01 -2.821473000e+00  9.271960000e-01  2.769820000e-01 -4.088730000e-01  1.050518244e+00  1.027300000e-01
 4.057687100e+01  2.114502600e+01 -2.826851000e+00  8.018710000e-01  2.430260000e-01 -3.580510000e-01  9.111856320e-01  9.281300000e-02
 4.163849600e+01  1.867030700e+01 -2.828710000e+00  6.754960000e-01  2.123070000e-01 -3.083100000e-01  7.722850279e-01  8.350490000e-02
 4.255173000e+01  1.613045000e+01 -2.825875000e+00  5.497300000e-01  1.844500000e-01 -2.595750000e-01  6.352983992e-01  7.483840000e-02
 4.331384600e+01  1.353466400e+01 -2.818077000e+00  4.268460000e-01  1.586640000e-01 -2.118770000e-01  5.022585348e-01  6.730180000e-02
 4.392603000e+01  1.089048500e+01 -2.805441000e+00  3.100300000e-01  1.334850000e-01 -1.654410000e-01  3.759089925e-01  6.229990000e-02
 4.438816900e+01  8.206713000e+00 -2.787775000e+00  2.031690000e-01  1.069130000e-01 -1.204750000e-01  2.592725550e-01  6.261160000e-02
 4.470458800e+01  5.489989700e+00 -2.766029800e+00  1.125880000e-01  7.498970000e-02 -7.762980000e-02  1.559676207e-01  7.072430000e-02
 4.488916790e+01  2.747339200e+00 -2.742029100e+00  5.216790000e-02  3.513920000e-02 -3.802910000e-02  7.350146675e-02  7.303410000e-02
 3.475497000e+01  3.009410800e+01 -5.102292000e+00  1.255970000e+00  3.871080000e-01 -5.977920000e-01  1.443838121e+00  1.337940000e-01
 3.635696000e+01  2.798373200e+01 -5.132471000e+00  1.142960000e+00  3.457320000e-01 -5.392710000e-01  1.310229518e+00  1.213560000e-01
 3.782908000e+01  2.576961100e+01 -5.188430000e+00  1.026080000e+00  3.066110000e-01 -4.828300000e-01  1.174723491e+00  1.100260000e-01
 3.916702600e+01  2.346244100e+01 -5.250415000e+00  9.060260000e-01  2.704410000e-01 -4.278150000e-01  1.037808808e+00  9.957080000e-02
 4.036462300e+01  2.107053900e+01 -5.308468000e+00  7.836230000e-01  2.375390000e-01 -3.738680000e-01  9.001483567e-01  8.973510000e-02
 4.141801400e+01  1.860287500e+01 -5.358144000e+00  6.600140000e-01  2.078750000e-01 -3.208440000e-01  7.627393842e-01  8.031710000e-02
 4.232486600e+01  1.607003600e+01 -5.397478000e+00  5.368660000e-01  1.810360000e-01 -2.687780000e-01  6.270891073e-01  7.133000000e-02
 4.308143700e+01  1.348119800e+01 -5.425667000e+00  4.164370000e-01  1.561980000e-01 -2.178670000e-01  4.952611633e-01  6.330850000e-02
 4.368896900e+01  1.084484200e+01 -5.442891000e+00  3.019690000e-01  1.318420000e-01 -1.684910000e-01  3.700767583e-01  5.789910000e-02
 4.414728200e+01  8.170778000e+00 -5.449068000e+00  1.972820000e-01  1.059780000e-01 -1.211680000e-01  2.546236600e-01  5.833830000e-02
 4.446072100e+01  5.465030600e+00 -5.445411600e+00  1.087210000e-01  7.463060000e-02 -7.681160000e-02  1.526106294e-01  6.735770000e-02
 4.464310180e+01  2.734625200e+00 -5.436251700e+00  5.010180000e-02  3.492520000e-02 -3.735170000e-02  7.158986975e-02  6.997250000e-02
 3.450024000e+01  2.990716300e+01 -7.367815000e+00  1.222240000e+00  3.771630000e-01 -6.215150000e-01  1.422112317e+00  1.295400000e-01
 3.608096000e+01  2.781278300e+01 -7.441929000e+00  1.112960000e+00  3.367830000e-01 -5.609290000e-01  1.291024436e+00  1.176380000e-01
 3.753049600e+01  2.561274900e+01 -7.551166000e+00  9.994960000e-01  2.987490000e-01 -5.021660000e-01  1.157762459e+00  1.067100000e-01
 3.884670400e+01  2.331871800e+01 -7.668256000e+00  8.827040000e-01  2.637180000e-01 -4.445560000e-01  1.022909367e+00  9.651640000e-02
 4.002645400e+01  2.093996300e+01 -7.778681000e+00  7.634540000e-01  2.319630000e-01 -3.877810000e-01  8.871544101e-01  8.678180000e-02
 4.106390300e+01  1.848540800e+01 -7.875872000e+00  6.429030000e-01  2.034080000e-01 -3.317720000e-01  7.515129685e-01  7.727730000e-02
 4.195570900e+01  1.596660700e+01 -7.956774000e+00  5.227090000e-01  1.776070000e-01 -2.766740000e-01  6.175090667e-01  6.799940000e-02
 4.270113400e+01  1.339169500e+01 -8.020225000e+00  4.051340000e-01  1.536950000e-01 -2.228250000e-01  4.872439754e-01  5.952790000e-02
 4.329835900e+01  1.077014500e+01 -8.066198000e+00  2.933590000e-01  1.301450000e-01 -1.707980000e-01  3.635507952e-01  5.373790000e-02
 4.374923600e+01  8.112818000e+00 -8.094847000e+00  1.912360000e-01  1.049180000e-01 -1.213470000e-01  2.496078701e-01  5.431230000e-02
 4.405793800e+01  5.425419500e+00 -8.107892200e+00  1.049380000e-01  7.401950000e-02 -7.569220000e-02  1.490643464e-01  6.410800000e-02
 4.423623030e+01  2.714612200e+00 -8.111833000e+00  4.823030000e-02  3.471220000e-02 -3.653300000e-02  6.975499090e-02  6.703540000e-02
 3.415813000e+01  2.964766300e+01 -9.614606000e+00  1.186130000e+00  3.666630000e-01 -6.420060000e-01  1.397683024e+00  1.253810000e-01
 3.570664000e+01  2.757147500e+01 -9.733084000e+00  1.080640000e+00  3.274750000e-01 -5.796840000e-01  1.269273897e+00  1.140210000e-01
 3.712472000e+01  2.539068000e+01 -9.895497000e+00  9.707200000e-01  2.906800000e-01 -5.188970000e-01  1.138440283e+00  1.035000000e-01
 3.841035200e+01  2.311390500e+01 -1.006708700e+01  8.573520000e-01  2.569050000e-01 -4.589870000e-01  1.005843774e+00  9.357280000e-02
 3.956147500e+01  2.075437300e+01 -1.022928100e+01  7.414750000e-01  2.263730000e-01 -3.996810000e-01  8.722240610e-01  8.394490000e-02
 4.057426100e+01  1.831897100e+01 -1.037298900e+01  6.242610000e-01  1.989710000e-01 -3.409890000e-01  7.386235530e-01  7.436600000e-02
 4.144535600e+01  1.582021300e+01 -1.049416200e+01  5.073560000e-01  1.742130000e-01 -2.831620000e-01  6.065814029e-01  6.482050000e-02
 4.217298700e+01  1.326621200e+01 -1.059267600e+01  3.929870000e-01  1.512120000e-01 -2.266760000e-01  4.782111041e-01  5.593380000e-02
 4.275529000e+01  1.066741500e+01 -1.066628500e+01  2.842900000e-01  1.284150000e-01 -1.722850000e-01  3.563612459e-01  4.981350000e-02
 4.319504100e+01  8.033963000e+00 -1.071595600e+01  1.850410000e-01  1.037630000e-01 -1.209560000e-01  2.442074646e-01  5.060240000e-02
 4.349630400e+01  5.371932600e+00 -1.074423050e+01  1.013040000e-01  7.333260000e-02 -7.423050000e-02  1.454315570e-01  6.117000000e-02
 4.366951440e+01  2.687615700e+00 -1.075961310e+01  4.651440000e-02  3.441570000e-02 -3.561310000e-02  6.794352585e-02  6.436860000e-02
 3.372782000e+01  2.931373700e+01 -1.183612500e+01  1.147820000e+00  3.557370000e-01 -6.591250000e-01  1.370578466e+00  1.213320000e-01
 3.523619000e+01  2.726291200e+01 -1.199839500e+01  1.046190000e+00  3.179120000e-01 -5.953950000e-01  1.245020788e+00  1.105130000e-01
 3.661089800e+01  2.510448800e+01 -1.221288400e+01  9.398980000e-01  2.824880000e-01 -5.328840000e-01  1.116769035e+00  1.003980000e-01
 3.785709600e+01  2.285106200e+01 -1.243797400e+01  8.300960000e-01  2.500620000e-01 -4.709740000e-01  9.866138463e-01  9.073300000e-02
 3.897179100e+01  2.051381400e+01 -1.265044900e+01  7.177910000e-01  2.208140000e-01 -4.094490000e-01  8.553544446e-01  8.121100000e-02
 3.995117100e+01  1.810459000e+01 -1.284039500e+01  6.041710000e-01  1.945900000e-01 -3.483950000e-01  7.240628021e-01  7.156550000e-02
 4.079386200e+01  1.563187100e+01 -1.300116800e+01  4.908620000e-01  1.708710000e-01 -2.881680000e-01  5.942921823e-01  6.177490000e-02
 4.149704300e+01  1.310674800e+01 -1.313137500e+01  3.800430000e-01  1.487480000e-01 -2.293750000e-01  4.681576016e-01  5.251250000e-02
 4.206076600e+01  1.053765300e+01 -1.323093500e+01  2.747660000e-01  1.266530000e-01 -1.729350000e-01  3.484879501e-01  4.613600000e-02
 4.248571100e+01  7.934738000e+00 -1.330102600e+01  1.787110000e-01  1.025380000e-01 -1.200260000e-01  2.384489540e-01  4.724360000e-02
 4.277676340e+01  5.304935400e+00 -1.334248910e+01  9.776340000e-02  7.253540000e-02 -7.248910000e-02  1.416818134e-01  5.860490000e-02
 4.294396990e+01  2.653872200e+00 -1.336858720e+01  4.496990000e-02  3.407220000e-02 -3.458720000e-02  6.617764821e-02  6.203000000e-02
 3.321249000e+01  2.890948900e+01 -1.402673900e+01  1.107490000e+00  3.444890000e-01 -6.727390000e-01  1.340814877e+00  1.173980000e-01
 3.466976000e+01  2.688718000e+01 -1.423092500e+01  1.009760000e+00  3.081800000e-01 -6.079250000e-01  1.218262277e+00  1.071130000e-01
 3.599317300e+01  2.475423800e+01 -1.449599100e+01  9.071730000e-01  2.742380000e-01 -5.439910000e-01  1.092746787e+00  9.739580000e-02
 3.718906300e+01  2.252823600e+01 -1.477238600e+01  8.010630000e-01  2.432360000e-01 -4.803860000e-01  9.652131322e-01  8.798510000e-02
 3.825751400e+01  2.022131300e+01 -1.503396000e+01  6.925140000e-01  2.153130000e-01 -4.169600000e-01  8.365350977e-01  7.856620000e-02
 3.919672900e+01  1.784227700e+01 -1.526588400e+01  5.827290000e-01  1.902770000e-01 -3.538840000e-01  7.078222302e-01  6.886450000e-02
 4.000330400e+01  1.540358100e+01 -1.546461300e+01  4.733040000e-01  1.675810000e-01 -2.916130000e-01  5.806360390e-01  5.885970000e-02
 4.067735400e+01  1.291329400e+01 -1.562687300e+01  3.663540000e-01  1.462940000e-01 -2.308730000e-01  4.570771597e-01  4.928240000e-02
 4.121782300e+01  1.038085200e+01 -1.575173900e+01  2.648230000e-01  1.248520000e-01 -1.727390000e-01  3.399382376e-01  4.275730000e-02
 4.162525300e+01  7.815618000e+00 -1.583957300e+01  1.722530000e-01  1.012180000e-01 -1.185730000e-01  2.323267868e-01  4.430680000e-02
 4.190432480e+01  5.224932800e+00 -1.589450220e+01  9.432480000e-02  7.163280000e-02 -7.050220000e-02  1.378368098e-01  5.647310000e-02
 4.206256420e+01  2.613655600e+00 -1.593049440e+01  4.356420000e-02  3.365560000e-02 -3.349440000e-02  6.443922536e-02  6.006010000e-02
 3.261330000e+01  2.843401000e+01 -1.617771700e+01  1.065300000e+00  3.330100000e-01 -6.827170000e-01  1.308381539e+00  1.135750000e-01
 3.401051400e+01  2.644434800e+01 -1.642314700e+01  9.715140000e-01  2.983480000e-01 -6.171470000e-01  1.189000169e+00  1.038150000e-01
 3.527270100e+01  2.434298000e+01 -1.673709100e+01  8.727010000e-01  2.659800000e-01 -5.520910000e-01  1.066375576e+00  9.448410000e-02
 3.640939800e+01  2.214845900e+01 -1.706109600e+01  7.703980000e-01  2.364590000e-01 -4.870960000e-01  9.416413597e-01  8.531780000e-02
 3.742277600e+01  1.987588600e+01 -1.736810100e+01  6.657760000e-01  2.098860000e-01 -4.221010000e-01  8.157690049e-01  7.600100000e-02
 3.831304700e+01  1.753403600e+01 -1.764236000e+01  5.600470000e-01  1.860360000e-01 -3.573600000e-01  6.899044898e-01  6.626020000e-02
 3.907777400e+01  1.513433300e+01 -1.787642100e+01  4.547740000e-01  1.643330000e-01 -2.934210000e-01  5.656152484e-01  5.608830000e-02
 3.971598800e+01  1.268583700e+01 -1.806812600e+01  3.519880000e-01  1.438370000e-01 -2.311260000e-01  4.449762495e-01  4.628760000e-02
 4.022850300e+01  1.019698900e+01 -1.821668100e+01  2.545030000e-01  1.229890000e-01 -1.716810000e-01  3.307150388e-01  3.976460000e-02
 4.061468700e+01  7.676990100e+00 -1.832261200e+01  1.656870000e-01  9.979010000e-02 -1.166120000e-01  2.258508458e-01  4.188940000e-02
 4.087997830e+01  5.131903900e+00 -1.838930850e+01  9.097830000e-02  7.060390000e-02 -6.830850000e-02  1.338955299e-01  5.483360000e-02
 4.102928680e+01  2.566966800e+00 -1.843436910e+01  4.228680000e-02  3.316680000e-02 -3.236910000e-02  6.273729920e-02  5.849620000e-02
 3.193245000e+01  2.788837700e+01 -1.828293200e+01  1.021450000e+00  3.213770000e-01 -6.889320000e-01  1.273291239e+00  1.098620000e-01
 3.326062700e+01  2.593647300e+01 -1.856794500e+01  9.316270000e-01  2.884730000e-01 -6.229450000e-01  1.157240689e+00  1.006170000e-01
 3.445265200e+01  2.387075600e+01 -1.892607000e+01  8.366520000e-01  2.577560000e-01 -5.570700000e-01  1.037666473e+00  9.166110000e-02
 3.552026800e+01  2.171375500e+01 -1.929599800e+01  7.382680000e-01  2.297550000e-01 -4.909980000e-01  9.159181382e-01  8.273010000e-02
 3.647072900e+01  1.947954500e+01 -1.964477200e+01  6.377290000e-01  2.045450000e-01 -4.247720000e-01  7.930751455e-01  7.351730000e-02
 3.730426500e+01  1.718186400e+01 -1.995673600e+01  5.362650000e-01  1.818640000e-01 -3.587360000e-01  6.703328893e-01  6.376430000e-02
 3.802038800e+01  1.482711900e+01 -2.022453200e+01  4.353880000e-01  1.611190000e-01 -2.935320000e-01  5.492568413e-01  5.349310000e-02
 3.861903400e+01  1.242636000e+01 -2.044409600e+01  3.370340000e-01  1.413600000e-01 -2.300960000e-01  4.318781494e-01  4.359780000e-02
 3.909786300e+01  9.988049000e+00 -2.061475200e+01  2.438630000e-01  1.210490000e-01 -1.697520000e-01  3.208391570e-01  3.727220000e-02
 3.946103500e+01  7.519338300e+00 -2.073716300e+01  1.590350000e-01  9.823830000e-02 -1.141630000e-01  2.190344388e-01  4.009700000e-02
 3.970872100e+01  5.026443300e+00 -2.081594780e+01  8.772100000e-02  6.944330000e-02 -6.594780000e-02  1.298709285e-01  5.373390000e-02
 3.984811940e+01  2.513998500e+00 -2.087024790e+01  4.111940000e-02  3.259850000e-02 -3.124790000e-02  6.107289508e-02  5.736590000e-02
 3.117715400e+01  2.727565400e+01 -2.033126100e+01  9.761540000e-01  3.096540000e-01 -6.912610000e-01  1.235558174e+00  1.062760000e-01
 3.242429900e+01  2.536560000e+01 -2.065621400e+01  8.902990000e-01  2.786000000e-01 -6.252140000e-01  1.123006151e+00  9.755100000e-02
 3.353622300e+01  2.333958700e+01 -2.105683300e+01  7.992230000e-01  2.495870000e-01 -5.588330000e-01  1.006650583e+00  8.896220000e-02
 3.452785600e+01  2.122414000e+01 -2.146800200e+01  7.048560000e-01  2.231400000e-01 -4.920020000e-01  8.880762402e-01  8.025470000e-02
 3.540655200e+01  1.903529200e+01 -2.185589000e+01  6.085520000e-01  1.992920000e-01 -4.248900000e-01  7.684948601e-01  7.115240000e-02
 3.617653900e+01  1.678475900e+01 -2.220194600e+01  5.115390000e-01  1.777590000e-01 -3.579460000e-01  6.491500208e-01  6.142640000e-02
 3.683827900e+01  1.448293000e+01 -2.249989400e+01  4.152790000e-01  1.579300000e-01 -2.918940000e-01  5.316019563e-01  5.114490000e-02
 3.738959100e+01  1.213685700e+01 -2.274475500e+01  3.215910000e-01  1.388570000e-01 -2.277550000e-01  4.178209877e-01  4.131800000e-02
 3.783196300e+01  9.754228000e+00 -2.293694700e+01  2.329630000e-01  1.190280000e-01 -1.669470000e-01  3.103396929e-01  3.540820000e-02
 3.816732100e+01  7.343265900e+00 -2.307524000e+01  1.523210000e-01  9.656590000e-02 -1.112400000e-01  2.118985552e-01  3.901250000e-02
 3.839654260e+01  4.908751200e+00 -2.316645680e+01  8.454260000e-02  6.815120000e-02 -6.345680000e-02  1.257728220e-01  5.318460000e-02
 3.852304190e+01  2.454955100e+00 -2.323016820e+01  4.004190000e-02  3.195510000e-02 -3.016820000e-02  5.945252276e-02  5.667430000e-02
 3.035220000e+01  2.660705500e+01 -2.230386600e+01  9.302000000e-01  2.980550000e-01 -6.898660000e-01  1.195836076e+00  1.029250000e-01
 3.150350800e+01  2.474898100e+01 -2.266934900e+01  8.485080000e-01  2.689810000e-01 -6.243490000e-01  1.087257227e+00  9.475360000e-02
 3.252346700e+01  2.277074400e+01 -2.311088400e+01  7.614670000e-01  2.417440000e-01 -5.578840000e-01  9.744263497e-01  8.651430000e-02
 3.342923500e+01  2.070183600e+01 -2.356062700e+01  6.712350000e-01  2.168360000e-01 -4.906270000e-01  8.592375278e-01  7.801870000e-02
 3.423125300e+01  1.856231000e+01 -2.398496500e+01  5.792530000e-01  1.943100000e-01 -4.229650000e-01  7.430947486e-01  6.904170000e-02
 3.493178600e+01  1.636486500e+01 -2.436345900e+01  4.867860000e-01  1.738650000e-01 -3.554590000e-01  6.273282623e-01  5.939300000e-02
 3.553323700e+01  1.411788300e+01 -2.468892800e+01  3.952370000e-01  1.548830000e-01 -2.889280000e-01  5.134982172e-01  4.920610000e-02
 3.603430200e+01  1.183042700e+01 -2.495746300e+01  3.063020000e-01  1.364270000e-01 -2.244630000e-01  4.035057371e-01  3.962180000e-02
 3.643728400e+01  9.508519000e+00 -2.516956200e+01  2.222840000e-01  1.170190000e-01 -1.635620000e-01  2.997601556e-01  3.430610000e-02
 3.674085400e+01  7.159061700e+00 -2.532506400e+01  1.458540000e-01  9.486170000e-02 -1.080640000e-01  2.048168927e-01  3.866250000e-02
 3.694959230e+01  4.786309500e+00 -2.542799020e+01  8.159230000e-02  6.680950000e-02 -6.099020000e-02  1.218220719e-01  5.314580000e-02
 3.706009440e+01  2.394385800e+00 -2.550220260e+01  3.909440000e-02  3.128580000e-02 -2.920260000e-02  5.796520715e-02  5.640250000e-02
 2.945969300e+01  2.594755000e+01 -2.414154700e+01  8.866930000e-01  2.875500000e-01 -6.865470000e-01  1.157694373e+00  1.000710000e-01
 3.048502100e+01  2.417079200e+01 -2.455488700e+01  8.100210000e-01  2.607920000e-01 -6.228870000e-01  1.054577974e+00  9.248960000e-02
 3.139729700e+01  2.225127100e+01 -2.504394600e+01  7.272970000e-01  2.352710000e-01 -5.569460000e-01  9.457812731e-01  8.458390000e-02
 3.221310500e+01  2.023273200e+01 -2.553754600e+01  6.411050000e-01  2.117320000e-01 -4.895460000e-01  8.339672337e-01  7.629930000e-02
 3.293522500e+01  1.814131400e+01 -2.599845500e+01  5.532250000e-01  1.903140000e-01 -4.214550000e-01  7.210420489e-01  6.746440000e-02
 3.356600000e+01  1.599274700e+01 -2.641146200e+01  4.650000000e-01  1.707470000e-01 -3.534620000e-01  6.085350635e-01  5.794860000e-02
 3.410580000e+01  1.379742700e+01 -2.676649600e+01  3.778000000e-01  1.524270000e-01 -2.864960000e-01  4.980429583e-01  4.796020000e-02
 3.455720100e+01  1.156343300e+01 -2.706172400e+01  2.932010000e-01  1.344330000e-01 -2.217240000e-01  3.914084696e-01  3.876050000e-02
 3.491832400e+01  9.295431000e+00 -2.729572000e+01  2.133240000e-01  1.153310000e-01 -1.607200000e-01  2.909283192e-01  3.409820000e-02
 3.519060500e+01  7.000403800e+00 -2.746938400e+01  1.406050000e-01  9.340380000e-02 -1.053840000e-01  1.989970435e-01  3.903420000e-02
 3.537535410e+01  4.681737200e+00 -2.758794390e+01  7.935410000e-02  6.563720000e-02 -5.894390000e-02  1.186579056e-01  5.357200000e-02
 3.546639910e+01  2.343206200e+00 -2.767746860e+01  3.839910000e-02  3.070620000e-02 -2.846860000e-02  5.681393126e-02  5.654420000e-02
 2.849993800e+01  2.543625200e+01 -2.574083400e+01  8.519380000e-01  2.802520000e-01 -6.858340000e-01  1.129029590e+00  9.799040000e-02
 2.934538400e+01  2.378197700e+01 -2.623200500e+01  7.813840000e-01  2.559770000e-01 -6.260050000e-01  1.033425101e+00  9.105680000e-02
 3.013171700e+01  2.192885500e+01 -2.679415600e+01  7.027170000e-01  2.318550000e-01 -5.611560000e-01  9.286893880e-01  8.347490000e-02
 3.085384800e+01  1.995018100e+01 -2.734844200e+01  6.198480000e-01  2.091810000e-01 -4.934420000e-01  8.194225047e-01  7.535980000e-02
 3.150118200e+01  1.789236400e+01 -2.786053000e+01  5.351820000e-01  1.883640000e-01 -4.245300000e-01  7.086088417e-01  6.664550000e-02
 3.206822700e+01  1.577623400e+01 -2.831555800e+01  4.502270000e-01  1.692340000e-01 -3.555580000e-01  5.981354275e-01  5.726210000e-02
 3.255430800e+01  1.361420900e+01 -2.870759600e+01  3.663080000e-01  1.512090000e-01 -2.875960000e-01  4.896500503e-01  4.748050000e-02
 3.295888900e+01  1.141139000e+01 -2.903488500e+01  2.848890000e-01  1.333900000e-01 -2.218850000e-01  3.849514095e-01  3.865720000e-02
 3.328294000e+01  9.174868000e+00 -2.929711400e+01  2.079400000e-01  1.143680000e-01 -1.601140000e-01  2.862788431e-01  3.455050000e-02
 3.352472600e+01  6.909799300e+00 -2.949526600e+01  1.377260000e-01  9.249930000e-02 -1.042660000e-01  1.959488972e-01  3.988790000e-02
 3.368232670e+01  4.620174100e+00 -2.963778640e+01  7.832670000e-02  6.487410000e-02 -5.778640000e-02  1.169743083e-01  5.441700000e-02
 3.374907150e+01  2.310990000e+00 -2.974909560e+01  3.807150000e-02  3.029000000e-02 -2.809560000e-02  5.618083260e-02  5.714650000e-02
 4.055097000e+01  3.900668900e+01  2.065707000e+00  1.707970000e+00  1.646890000e-01 -6.665930000e-01  1.840823244e+00  1.359660000e-01
 3.824806000e+01  4.134780200e+01  2.031957000e+00  1.813060000e+00  2.398020000e-01 -7.249430000e-01  1.967291009e+00  1.458380000e-01
 3.579720000e+01  4.354056000e+01  2.027823000e+00  1.905200000e+00  3.155600000e-01 -7.831770000e-01  2.083922112e+00  1.559060000e-01
 3.320573000e+01  4.557465800e+01  2.037429000e+00  1.981730000e+00  3.886580000e-01 -8.411710000e-01  2.187664848e+00  1.659320000e-01
 3.047881000e+01  4.743860400e+01  2.050640000e+00  2.039810000e+00  4.546040000e-01 -8.986600000e-01  2.274880091e+00  1.755710000e-01
 2.762470000e+01  4.912046900e+01  2.062094000e+00  2.076700000e+00  5.074690000e-01 -9.552060000e-01  2.341500839e+00  1.843570000e-01
 2.465216000e+01  5.060471400e+01  2.069800000e+00  2.090160000e+00  5.397140000e-01 -1.010200000e+00  2.383393393e+00  1.916320000e-01
 2.157095000e+01  5.187613300e+01  2.073130000e+00  2.078950000e+00  5.421330000e-01 -1.062870000e+00  2.397005200e+00  1.965160000e-01
 1.839451000e+01  5.292101700e+01  2.072320000e+00  2.043510000e+00  5.040170000e-01 -1.112280000e+00  2.380574102e+00  1.978750000e-01
 1.513665000e+01  5.372059500e+01  2.068170000e+00  1.986650000e+00  4.135950000e-01 -1.157430000e+00  2.336125693e+00  1.943400000e-01
 1.181685000e+01  5.426187900e+01  2.061490000e+00  1.914250000e+00  2.588790000e-01 -1.197210000e+00  2.272593933e+00  1.843990000e-01
 8.456520000e+00  5.452985730e+01  2.053690000e+00  1.835720000e+00  2.885730000e-02 -1.230610000e+00  2.210226602e+00  1.666580000e-01
 5.080370000e+00  5.451503100e+01  2.047120000e+00  1.764070000e+00 -2.849690000e-01 -1.256780000e+00  2.184638703e+00  1.412010000e-01
 4.043243000e+01  3.887304500e+01  4.845070000e+00  1.733430000e+00  1.760450000e-01 -6.217300000e-01  1.849951243e+00  1.399080000e-01
 3.814659000e+01  4.119505300e+01  4.841263000e+00  1.839590000e+00  2.520530000e-01 -6.751370000e-01  1.975710518e+00  1.499630000e-01
 3.571031000e+01  4.336830500e+01  4.894301000e+00  1.932310000e+00  3.283050000e-01 -7.279990000e-01  2.090834439e+00  1.602110000e-01
 3.312959000e+01  4.538302700e+01  4.974517000e+00  2.008590000e+00  4.010270000e-01 -7.805830000e-01  2.191932084e+00  1.703670000e-01
 3.041121000e+01  4.722808600e+01  5.061721000e+00  2.065210000e+00  4.650860000e-01 -8.330790000e-01  2.274954494e+00  1.799920000e-01
 2.756309000e+01  4.888968000e+01  5.144342000e+00  2.099090000e+00  5.136800000e-01 -8.855580000e-01  2.335435493e+00  1.885050000e-01
 2.459374000e+01  5.035316400e+01  5.216501000e+00  2.107740000e+00  5.381640000e-01 -9.379990000e-01  2.368972461e+00  1.951100000e-01
 2.151390000e+01  5.160098700e+01  5.275391000e+00  2.089900000e+00  5.279870000e-01 -9.903090000e-01  2.372164454e+00  1.987470000e-01
 1.833723000e+01  5.261588200e+01  5.319750000e+00  2.046230000e+00  4.708820000e-01 -1.042350000e+00  2.344201483e+00  1.980770000e-01
 1.507914000e+01  5.338037900e+01  5.349060000e+00  1.980140000e+00  3.533790000e-01 -1.093940000e+00  2.289658459e+00  1.915060000e-01
 1.176056000e+01  5.387779500e+01  5.363020000e+00  1.898660000e+00  1.617950000e-01 -1.144880000e+00  2.223024434e+00  1.773680000e-01
 8.405210000e+00  5.409143900e+01  5.362890000e+00  1.812710000e+00 -1.165610000e-01 -1.195010000e+00  2.174293658e+00  1.543280000e-01
 5.039690000e+00  5.401161300e+01  5.352130000e+00  1.737790000e+00 -4.913870000e-01 -1.244170000e+00  2.193019438e+00  1.239490000e-01
 4.021256000e+01  3.864075500e+01  7.619353000e+00  1.754560000e+00  1.857550000e-01 -5.737470000e-01  1.855308959e+00  1.438910000e-01
 3.794921000e+01  4.093519400e+01  7.646469000e+00  1.861210000e+00  2.621940000e-01 -6.218310000e-01  1.979778308e+00  1.540920000e-01
 3.553184000e+01  4.307639300e+01  7.755920000e+00  1.953840000e+00  3.383930000e-01 -6.689800000e-01  2.092733812e+00  1.644750000e-01
 3.296617000e+01  4.505914100e+01  7.905590000e+00  2.029170000e+00  4.101410000e-01 -7.159100000e-01  2.190496212e+00  1.747040000e-01
 3.026168000e+01  4.687272100e+01  8.065538000e+00  2.083680000e+00  4.717210000e-01 -7.633620000e-01  2.268692264e+00  1.842530000e-01
 2.742499000e+01  4.850354200e+01  8.217848000e+00  2.113990000e+00  5.155420000e-01 -8.120520000e-01  2.322534332e+00  1.924310000e-01
 2.446545000e+01  4.993496500e+01  8.352691000e+00  2.117450000e+00  5.319650000e-01 -8.627090000e-01  2.347519560e+00  1.983040000e-01
 2.139477000e+01  5.114924100e+01  8.464573000e+00  2.092770000e+00  5.092410000e-01 -9.161270000e-01  2.340577140e+00  2.006450000e-01
 1.822588000e+01  5.212872600e+01  8.550343000e+00  2.040880000e+00  4.337260000e-01 -9.731570000e-01  2.302247590e+00  1.979240000e-01
 1.497684000e+01  5.285245800e+01  8.608070000e+00  1.965840000e+00  2.904580000e-01 -1.034730000e+00  2.240437218e+00  1.883460000e-01
 1.166959000e+01  5.330228840e+01  8.636170000e+00  1.875690000e+00  6.428840000e-02 -1.101730000e+00  2.176270886e+00  1.701690000e-01
 8.328980000e+00  5.346206500e+01  8.635280000e+00  1.782880000e+00 -2.589350000e-01 -1.175120000e+00  2.150956867e+00  1.422720000e-01
 4.983310000e+00  5.331801400e+01  8.610310000e+00  1.704910000e+00 -6.899860000e-01 -1.255490000e+00  2.226893336e+00  1.090080000e-01
 3.989202000e+01  3.831060900e+01  1.037905900e+01  1.771020000e+00  1.936090000e-01 -5.229410000e-01  1.856734654e+00  1.478590000e-01
 3.765754000e+01  4.056597000e+01  1.043760700e+01  1.877540000e+00  2.699700000e-01 -5.653930000e-01  1.979320463e+00  1.581530000e-01
 3.526241000e+01  4.266456100e+01  1.060344000e+01  1.969410000e+00  3.455610000e-01 -6.065600000e-01  2.089474380e+00  1.686130000e-01
 3.271715000e+01  4.460378600e+01  1.082132400e+01  2.043150000e+00  4.157860000e-01 -6.476760000e-01  2.183305778e+00  1.788490000e-01
 3.003098000e+01  4.637344200e+01  1.105188200e+01  2.094980000e+00  4.744420000e-01 -6.901180000e-01  2.256169157e+00  1.882550000e-01
 2.721136000e+01  4.796128900e+01  1.127264200e+01  2.121360000e+00  5.132890000e-01 -7.353580000e-01  2.303125102e+00  1.960370000e-01
 2.426951000e+01  4.935088500e+01  1.146797500e+01  2.119510000e+00  5.218850000e-01 -7.850250000e-01  2.319687661e+00  2.011370000e-01
 2.121520000e+01  5.052352600e+01  1.162905300e+01  2.088200000e+00  4.875260000e-01 -8.409470000e-01  2.303356832e+00  2.021790000e-01
 1.806365000e+01  5.146049600e+01  1.175283500e+01  2.028650000e+00  3.954960000e-01 -9.051650000e-01  2.256360252e+00  1.974710000e-01
 1.483347000e+01  5.213968600e+01  1.183414200e+01  1.945470000e+00  2.296860000e-01 -9.798580000e-01  2.190372315e+00  1.850710000e-01
 1.154751000e+01  5.254284280e+01  1.186977000e+01  1.847710000e+00 -2.615720000e-02 -1.067230000e+00  2.133939155e+00  1.632360000e-01
 8.231290000e+00  5.265267900e+01  1.186062000e+01  1.748990000e+00 -3.873210000e-01 -1.169380000e+00  2.139259957e+00  1.313930000e-01
 4.914940000e+00  5.245274200e+01  1.181301000e+01  1.668740000e+00 -8.652580000e-01 -1.287990000e+00  2.278658121e+00  9.835830000e-02
 3.947051000e+01  3.788241800e+01  1.311735100e+01  1.782510000e+00  1.994180000e-01 -4.696490000e-01  1.854098062e+00  1.517920000e-01
 3.726925000e+01  4.008917000e+01  1.320676000e+01  1.888250000e+00  2.751700000e-01 -5.062400000e-01  1.974205037e+00  1.621250000e-01
 3.490270000e+01  4.213360600e+01  1.342676200e+01  1.978700000e+00  3.496060000e-01 -5.412380000e-01  2.080965309e+00  1.726070000e-01
 3.238225000e+01  4.401683000e+01  1.371054900e+01  2.050250000e+00  4.178300000e-01 -5.764510000e-01  2.170346223e+00  1.827960000e-01
 2.971899000e+01  4.573029000e+01  1.401104200e+01  2.098990000e+00  4.732900000e-01 -6.139580000e-01  2.237567177e+00  1.920150000e-01
 2.692429000e+01  4.726429100e+01  1.429692300e+01  2.121290000e+00  5.072910000e-01 -6.560770000e-01  2.277641862e+00  1.993830000e-01
 2.400635000e+01  4.860285400e+01  1.454858100e+01  2.114350000e+00  5.088540000e-01 -7.054190000e-01  2.286268637e+00  2.037350000e-01
 2.097806000e+01  4.972665900e+01  1.475803800e+01  2.077060000e+00  4.646590000e-01 -7.649620000e-01  2.261692528e+00  2.035740000e-01
 1.785392000e+01  5.061732000e+01  1.491498900e+01  2.010920000e+00  3.593200000e-01 -8.380110000e-01  2.207979290e+00  1.970870000e-01
 1.465306000e+01  5.125205500e+01  1.501485800e+01  1.921060000e+00  1.760550000e-01 -9.281420000e-01  2.140774266e+00  1.822340000e-01
 1.139777000e+01  5.161095900e+01  1.505416000e+01  1.817270000e+00 -1.020410000e-01 -1.038840000e+00  2.095726882e+00  1.573710000e-01
 8.115960000e+00  5.167613400e+01  1.503141000e+01  1.714160000e+00 -4.908660000e-01 -1.173590000e+00  2.134621143e+00  1.227800000e-01
 4.837980000e+00  5.143268000e+01  1.495421000e+01  1.632380000e+00 -1.002320000e+00 -1.334790000e+00  2.334732145e+00  9.294660000e-02
 3.894875000e+01  3.735800500e+01  1.582271100e+01  1.788750000e+00  2.030050000e-01 -4.142890000e-01  1.847288004e+00  1.556650000e-01
 3.678706000e+01  3.950560400e+01  1.594312500e+01  1.893060000e+00  2.776040000e-01 -4.448750000e-01  1.964345670e+00  1.659770000e-01
 3.445245000e+01  4.148535600e+01  1.621539200e+01  1.981450000e+00  3.503560000e-01 -4.736080000e-01  2.067171489e+00  1.764260000e-01
 3.196229000e+01  4.330017700e+01  1.656410300e+01  2.050290000e+00  4.161770000e-01 -5.028970000e-01  2.151696487e+00  1.865260000e-01
 2.932866000e+01  4.494633900e+01  1.693043900e+01  2.095660000e+00  4.683390000e-01 -5.355610000e-01  2.213133037e+00  1.955410000e-01
 2.656496000e+01  4.641594000e+01  1.727820900e+01  2.113960000e+00  4.979400000e-01 -5.747910000e-01  2.246587594e+00  2.025190000e-01
 2.367947000e+01  4.769378300e+01  1.758478400e+01  2.102470000e+00  4.937830000e-01 -6.242160000e-01  2.248076370e+00  2.062170000e-01
 2.068626000e+01  4.876334400e+01  1.783703300e+01  2.060260000e+00  4.423440000e-01 -6.879670000e-01  2.216672749e+00  2.050530000e-01
 1.759812000e+01  4.960306700e+01  1.802535200e+01  1.989120000e+00  3.280670000e-01 -7.706480000e-01  2.158268906e+00  1.971370000e-01
 1.443654000e+01  5.019402100e+01  1.814185800e+01  1.894540000e+00  1.340210000e-01 -8.771420000e-01  2.092037650e+00  1.803950000e-01
 1.122335000e+01  5.051425100e+01  1.818069000e+01  1.786850000e+00 -1.567490000e-01 -1.012310000e+00  2.059654026e+00  1.533400000e-01
 7.986250000e+00  5.054670000e+01  1.814130000e+01  1.681150000e+00 -5.603000000e-01 -1.180700000e+00  2.129378760e+00  1.172590000e-01
 4.755790000e+00  5.027279000e+01  1.803309000e+01  1.598890000e+00 -1.088210000e+00 -1.385910000e+00  2.379368984e+00  9.180100000e-02
 3.832752000e+01  3.673823000e+01  1.848866500e+01  1.789520000e+00  2.042300000e-01 -3.573350000e-01  1.836240732e+00  1.594510000e-01
 3.621172000e+01  3.881712600e+01  1.863813800e+01  1.891720000e+00  2.771260000e-01 -3.818620000e-01  1.949672271e+00  1.696750000e-01
 3.391546000e+01  4.072068900e+01  1.896168600e+01  1.977460000e+00  3.476890000e-01 -4.043140000e-01  2.048098021e+00  1.800360000e-01
 3.145915000e+01  4.245478200e+01  1.937029500e+01  2.043150000e+00  4.107820000e-01 -4.277050000e-01  2.127471584e+00  1.900190000e-01
 2.886103000e+01  4.402370400e+01  1.979842100e+01  2.085030000e+00  4.597040000e-01 -4.555790000e-01  2.183169735e+00  1.988410000e-01
 2.613361000e+01  4.541861400e+01  2.020502400e+01  2.099610000e+00  4.856140000e-01 -4.919760000e-01  2.210480376e+00  2.055020000e-01
 2.328941000e+01  4.662846600e+01  2.056350800e+01  2.084410000e+00  4.774660000e-01 -5.414920000e-01  2.205890391e+00  2.087090000e-01
 2.033970000e+01  4.763798200e+01  2.085665500e+01  2.038700000e+00  4.219820000e-01 -6.093450000e-01  2.169255132e+00  2.068380000e-01
 1.729952000e+01  4.842595900e+01  2.107270900e+01  1.964520000e+00  3.039590000e-01 -7.012910000e-01  2.107970344e+00  1.979760000e-01
 1.418761000e+01  4.897393400e+01  2.120453600e+01  1.867610000e+00  1.069340000e-01 -8.234640000e-01  2.043892109e+00  1.800630000e-01
 1.102716000e+01  4.926242800e+01  2.124321800e+01  1.758460000e+00 -1.855720000e-01 -9.817820000e-01  2.022502023e+00  1.517920000e-01
 7.844900000e+00  4.927294900e+01  2.118798000e+01  1.652300000e+00 -5.890510000e-01 -1.182020000e+00  2.115241748e+00  1.152350000e-01
 4.670870000e+00  4.898653000e+01  2.104994000e+01  1.570570000e+00 -1.114470000e+00 -1.428060000e+00  2.397517230e+00  9.293300000e-02
 3.760867000e+01  3.602900900e+01  2.110566200e+01  1.784670000e+00  2.030090000e-01 -2.993380000e-01  1.820951098e+00  1.631180000e-01
 3.554510000e+01  3.802763900e+01  2.128317800e+01  1.884100000e+00  2.736390000e-01 -3.178220000e-01  1.930212925e+00  1.731700000e-01
 3.329062000e+01  3.984252700e+01  2.165394800e+01  1.966620000e+00  3.415270000e-01 -3.340520000e-01  2.023814630e+00  1.833890000e-01
 3.087481000e+01  4.148663400e+01  2.211940900e+01  2.028810000e+00  4.016340000e-01 -3.515910000e-01  2.097855123e+00  1.932350000e-01
 2.831818000e+01  4.296547800e+01  2.260534500e+01  2.067180000e+00  4.474780000e-01 -3.746550000e-01  2.147984190e+00  2.019020000e-01
 2.563453000e+01  4.427758600e+01  2.306596000e+01  2.078530000e+00  4.705860000e-01 -4.080400000e-01  2.169846719e+00  2.083580000e-01
 2.283865000e+01  4.541241400e+01  2.347182000e+01  2.060650000e+00  4.604140000e-01 -4.571800000e-01  2.160387240e+00  2.112950000e-01
 1.994210000e+01  4.635639300e+01  2.380280500e+01  2.013100000e+00  4.043930000e-01 -5.281950000e-01  2.120163972e+00  2.090930000e-01
 1.695908000e+01  4.709120700e+01  2.404719200e+01  1.938080000e+00  2.882070000e-01 -6.278080000e-01  2.057513122e+00  1.998690000e-01
 1.390742000e+01  4.759939340e+01  2.419392900e+01  1.841420000e+00  9.639340000e-02 -7.630710000e-01  1.995594311e+00  1.816240000e-01
 1.081107000e+01  4.786359500e+01  2.423412400e+01  1.733470000e+00 -1.864050000e-01 -9.408760000e-01  1.981139246e+00  1.531830000e-01
 7.693620000e+00  4.786431400e+01  2.416843000e+01  1.629020000e+00 -5.746860000e-01 -1.167570000e+00  2.084991574e+00  1.168470000e-01
 4.584780000e+00  4.758202000e+01  2.400823000e+01  1.548880000e+00 -1.077980000e+00 -1.447770000e+00  2.378467597e+00  9.496090000e-02
 3.679322000e+01  3.523333500e+01  2.366107100e+01  1.774220000e+00  1.993350000e-01 -2.409290000e-01  1.801565384e+00  1.666200000e-01
 3.478716000e+01  3.713910100e+01  2.386855300e+01  1.870160000e+00  2.671010000e-01 -2.534470000e-01  1.906063155e+00  1.763890000e-01
 3.258191000e+01  3.885483300e+01  2.428345000e+01  1.948910000e+00  3.318330000e-01 -2.635500000e-01  1.994447776e+00  1.863880000e-01
 3.021135000e+01  4.039770100e+01  2.480071000e+01  2.007350000e+00  3.887010000e-01 -2.752900000e-01  2.063086783e+00  1.960830000e-01
 2.770129000e+01  4.177868700e+01  2.534057400e+01  2.042290000e+00  4.316870000e-01 -2.934260000e-01  2.107937600e+00  2.046540000e-01
 2.506900000e+01  4.299790200e+01  2.585064300e+01  2.051000000e+00  4.529020000e-01 -3.233570000e-01  2.125154341e+00  2.110490000e-01
 2.232961000e+01  4.405070500e+01  2.629984300e+01  2.031610000e+00  4.427050000e-01 -3.711570000e-01  2.112151611e+00  2.139780000e-01
 1.949494000e+01  4.492461800e+01  2.666741100e+01  1.983940000e+00  3.896180000e-01 -4.435890000e-01  2.069925436e+00  2.118770000e-01
 1.657936000e+01  4.560566900e+01  2.693799800e+01  1.910360000e+00  2.806690000e-01 -5.480020000e-01  2.007126456e+00  2.029390000e-01
 1.359953000e+01  4.607692900e+01  2.710189000e+01  1.816530000e+00  1.019290000e-01 -6.921100000e-01  1.946583421e+00  1.852620000e-01
 1.057625000e+01  4.632157200e+01  2.714974000e+01  1.712350000e+00 -1.604280000e-01 -8.832600000e-01  1.933398017e+00  1.577280000e-01
 7.533410000e+00  4.632274700e+01  2.707962000e+01  1.611710000e+00 -5.192530000e-01 -1.128380000e+00  2.034815526e+00  1.222360000e-01
 4.498140000e+00  4.606147600e+01  2.690728000e+01  1.534140000e+00 -9.825240000e-01 -1.431720000e+00  2.317058719e+00  9.794980000e-02
 3.588356000e+01  3.436841900e+01  2.613288400e+01  1.758560000e+00  1.934190000e-01 -1.831160000e-01  1.778616218e+00  1.698620000e-01
 3.395280000e+01  3.615940200e+01  2.637124100e+01  1.849800000e+00  2.574020000e-01 -1.897590000e-01  1.877238479e+00  1.791660000e-01
 3.180908000e+01  3.775727700e+01  2.682818800e+01  1.924080000e+00  3.182770000e-01 -1.938120000e-01  1.959833459e+00  1.888420000e-01
 2.949350000e+01  3.918567800e+01  2.739433700e+01  1.978500000e+00  3.716780000e-01 -1.996630000e-01  2.022985936e+00  1.983890000e-01
 2.703738000e+01  4.045802800e+01  2.798250600e+01  2.010380000e+00  4.120280000e-01 -2.124940000e-01  2.063140450e+00  2.069290000e-01
 2.446329000e+01  4.157840700e+01  2.853984900e+01  2.017290000e+00  4.324070000e-01 -2.381510000e-01  2.076812620e+00  2.134190000e-01
 2.178673000e+01  4.254422600e+01  2.903096300e+01  1.997730000e+00  4.242260000e-01 -2.830370000e-01  2.061796012e+00  2.166350000e-01
 1.902078000e+01  4.334642600e+01  2.943375100e+01  1.951780000e+00  3.774260000e-01 -3.542490000e-01  2.019254295e+00  2.151020000e-01
 1.617981000e+01  4.397170500e+01  2.973355600e+01  1.881810000e+00  2.807050000e-01 -4.594440000e-01  1.957317798e+00  2.071310000e-01
 1.327817000e+01  4.440796800e+01  2.991945000e+01  1.793170000e+00  1.219680000e-01 -6.065500000e-01  1.896902144e+00  1.909340000e-01
 1.033638000e+01  4.464031800e+01  2.998080700e+01  1.694980000e+00 -1.106820000e-01 -8.031930000e-01  1.878916363e+00  1.653870000e-01
 7.374170000e+00  4.465170300e+01  2.991883000e+01  1.599870000e+00 -4.282970000e-01 -1.056170000e+00  1.964310924e+00  1.315990000e-01
 4.417230000e+00  4.442117000e+01  2.974830000e+01  1.525430000e+00 -8.368300000e-01 -1.369700000e+00  2.214339455e+00  1.035280000e-01
 3.492507000e+01  3.346440400e+01  2.843986000e+01  1.738070000e+00  1.854040000e-01 -1.281400000e-01  1.752621416e+00  1.726280000e-01
 3.311983000e+01  3.508259600e+01  2.870984200e+01  1.821830000e+00  2.435960000e-01 -1.291580000e-01  1.842575738e+00  1.812420000e-01
 3.106923000e+01  3.652554300e+01  2.922022500e+01  1.890230000e+00  2.995430000e-01 -1.267750000e-01  1.918011304e+00  1.905190000e-01
 2.882389000e+01  3.782110100e+01  2.984297100e+01  1.940890000e+00  3.491010000e-01 -1.260290000e-01  1.976058908e+00  1.998960000e-01
 2.642872000e+01  3.897859100e+01  3.048643500e+01  1.970720000e+00  3.875910000e-01 -1.325650000e-01  2.012843159e+00  2.084750000e-01
 2.391437000e+01  3.999869600e+01  3.109472700e+01  1.977370000e+00  4.086960000e-01 -1.522730000e-01  2.024897924e+00  2.152680000e-01
 2.130052000e+01  4.087903100e+01  3.163332700e+01  1.959520000e+00  4.050310000e-01 -1.916730000e-01  2.010101311e+00  2.191100000e-01
 1.860135000e+01  4.161200600e+01  3.207810700e+01  1.917350000e+00  3.680060000e-01 -2.578930000e-01  1.969306537e+00  2.186360000e-01
 1.583008000e+01  4.218706600e+01  3.241541100e+01  1.853080000e+00  2.880660000e-01 -3.585890000e-01  1.909312331e+00  2.122920000e-01
 1.300254000e+01  4.259404800e+01  3.263129500e+01  1.771540000e+00  1.550480000e-01 -5.017050000e-01  1.847728812e+00  1.984200000e-01
 1.013476000e+01  4.281992160e+01  3.271924300e+01  1.680860000e+00 -4.107840000e-02 -6.947570000e-01  1.819248489e+00  1.758630000e-01
 7.245740000e+00  4.284760000e+01  3.267850500e+01  1.592140000e+00 -3.094000000e-01 -9.444950000e-01  1.876888101e+00  1.449250000e-01
 4.354700000e+00  4.265623300e+01  3.252529000e+01  1.520800000e+00 -6.547670000e-01 -1.254710000e+00  2.077462310e+00  1.140930000e-01
 3.404784000e+01  3.258178400e+01  3.040512810e+01  1.713840000e+00  1.757840000e-01 -8.087190000e-02  1.724728334e+00  1.747670000e-01
 3.246632000e+01  3.389106300e+01  3.074718390e+01  1.783320000e+00  2.240630000e-01 -7.581610000e-02  1.798939280e+00  1.823010000e-01
 3.054535000e+01  3.511391800e+01  3.135643690e+01  1.844350000e+00  2.729180000e-01 -6.556310000e-02  1.865585612e+00  1.909470000e-01
 2.837500000e+01  3.625695600e+01  3.206910270e+01  1.892000000e+00  3.189560000e-01 -5.689730000e-02  1.919540110e+00  2.000930000e-01
 2.603165000e+01  3.729978300e+01  3.279181020e+01  1.921650000e+00  3.567830000e-01 -5.518980000e-02  1.955269482e+00  2.087960000e-01
 2.356337000e+01  3.822665000e+01  3.346966330e+01  1.930370000e+00  3.806500000e-01 -6.633670000e-02  1.968660285e+00  2.160630000e-01
 2.099365000e+01  3.903214900e+01  3.407034210e+01  1.916650000e+00  3.841490000e-01 -9.665790000e-02  1.957156209e+00  2.208090000e-01
 1.834151000e+01  3.970706300e+01  3.457286100e+01  1.880510000e+00  3.600630000e-01 -1.531390000e-01  1.920784938e+00  2.217980000e-01
 1.561982000e+01  4.024243800e+01  3.496068900e+01  1.823820000e+00  3.004380000e-01 -2.433110000e-01  1.864345093e+00  2.176340000e-01
 1.284075000e+01  4.062879600e+01  3.522402500e+01  1.750750000e+00  1.967960000e-01 -3.749750000e-01  1.801238596e+00  2.068080000e-01
 1.002026000e+01  4.085480200e+01  3.535337000e+01  1.668260000e+00  4.080200000e-02 -5.556300000e-01  1.758829420e+00  1.881460000e-01
 7.174290000e+00  4.090480000e+01  3.534919300e+01  1.585990000e+00 -1.752000000e-01 -7.918070000e-01  1.781296619e+00  1.613920000e-01
 4.319200000e+00  4.075414100e+01  3.523079000e+01  1.517100000e+00 -4.548590000e-01 -1.087210000e+00  1.921071239e+00  1.308490000e-01
 3.344698000e+01  3.190327900e+01  3.172287580e+01  1.691980000e+00  1.672790000e-01 -4.912420000e-02  1.700938497e+00  1.764290000e-01
 3.220959000e+01  3.255899000e+01  3.235110110e+01  1.732590000e+00  1.959900000e-01 -3.389890000e-02  1.743969416e+00  1.819640000e-01
 3.039954000e+01  3.347774000e+01  3.317008480e+01  1.783540000e+00  2.367400000e-01 -1.391520000e-02  1.799237169e+00  1.899670000e-01
 2.826748000e+01  3.446076700e+01  3.402963588e+01  1.829480000e+00  2.797670000e-01  4.635880000e-03  1.850753397e+00  1.989280000e-01
 2.594335000e+01  3.539819200e+01  3.486565420e+01  1.861350000e+00  3.181920000e-01  1.665420000e-02  1.888424564e+00  2.078010000e-01
 2.348866000e+01  3.624737700e+01  3.563887100e+01  1.874660000e+00  3.463770000e-01  1.687100000e-02  1.906465781e+00  2.156170000e-01
 2.093445000e+01  3.699277000e+01  3.632330387e+01  1.867450000e+00  3.587700000e-01 -6.961310000e-04  1.901600878e+00  2.214020000e-01
 1.829533000e+01  3.762332900e+01  3.690123280e+01  1.839330000e+00  3.493290000e-01 -4.276720000e-02  1.872697155e+00  2.240650000e-01
 1.558566000e+01  3.813142500e+01  3.735830500e+01  1.791660000e+00  3.114250000e-01 -1.166950000e-01  1.822264747e+00  2.223780000e-01
 1.281780000e+01  3.850700500e+01  3.768479700e+01  1.727800000e+00  2.380050000e-01 -2.302030000e-01  1.759242064e+00  2.150030000e-01
 1.000514000e+01  3.873907100e+01  3.787130900e+01  1.653640000e+00  1.220710000e-01 -3.906910000e-01  1.703545138e+00  2.008170000e-01
 7.162400000e+00  3.881045190e+01  3.792039500e+01  1.577400000e+00 -4.254810000e-02 -6.046050000e-01  1.689836769e+00  1.793260000e-01
 4.308040000e+00  3.869847500e+01  3.784900500e+01  1.510440000e+00 -2.585250000e-01 -8.749950000e-01  1.764619058e+00  1.524100000e-01
 4.307410000e+00  3.647072770e+01  4.036414000e+01  1.496210000e+00 -8.527230000e-02 -6.328600000e-01  1.626784408e+00  1.760530000e-01
 4.336360000e+00  3.408406930e+01  4.273101500e+01  1.470660000e+00  5.006930000e-02 -3.789850000e-01  1.519531968e+00  1.985470000e-01
 4.368980000e+00  3.153648100e+01  4.492701600e+01  1.430280000e+00  1.384810000e-01 -1.349840000e-01  1.443294338e+00  2.168510000e-01
 4.390320000e+00  2.883292200e+01  4.692977530e+01  1.372320000e+00  1.789220000e-01  8.077530000e-02  1.386289982e+00  2.292240000e-01
 4.393460000e+00  2.599170200e+01  4.871982100e+01  1.295060000e+00  1.767020000e-01  2.538210000e-01  1.331476286e+00  2.350130000e-01
 4.377130000e+00  2.303552900e+01  5.028284100e+01  1.198030000e+00  1.415290000e-01  3.748410000e-01  1.263254572e+00  2.346910000e-01
 4.345230000e+00  1.999277380e+01  5.160697400e+01  1.081830000e+00  8.577380000e-02  4.399740000e-01  1.171021099e+00  2.297910000e-01
 4.309290000e+00  1.689592500e+01  5.269107700e+01  9.480900000e-01  2.292500000e-02  4.510770000e-01  1.050176492e+00  2.229320000e-01
 4.290368000e+00  1.378779150e+01  5.353524800e+01  7.995680000e-01 -3.420850000e-02  4.152480000e-01  9.016152780e-01  2.176580000e-01
 4.316820000e+00  1.070302430e+01  5.415316600e+01  6.393200000e-01 -7.397570000e-02  3.451660000e-01  7.303027004e-01  2.178360000e-01
 4.422021000e+00  7.590205600e+00  5.456823100e+01  4.664210000e-01 -9.029440000e-02  2.512310000e-01  5.374184992e-01  2.294100000e-01
 4.492562000e+00  4.161519800e+00  5.482828900e+01  2.631620000e-01 -6.358020000e-02  1.542890000e-01  3.116115781e-01  2.489950000e-01
 7.191580000e+00  3.655053950e+01  4.037792700e+01  1.561380000e+00  7.153950000e-02 -3.960730000e-01  1.612420301e+00  1.973170000e-01
 7.278680000e+00  3.413819500e+01  4.267986900e+01  1.533880000e+00  1.551950000e-01 -1.821310000e-01  1.552431977e+00  2.134520000e-01
 7.385060000e+00  3.157263700e+01  4.480733850e+01  1.490860000e+00  2.006370000e-01  1.833850000e-02  1.504411860e+00  2.255790000e-01
 7.486260000e+00  2.886377300e+01  4.674295200e+01  1.429260000e+00  2.077730000e-01  1.899520000e-01  1.456720814e+00  2.326620000e-01
 7.571050000e+00  2.602793700e+01  4.846951400e+01  1.347450000e+00  1.819370000e-01  3.215140000e-01  1.397173513e+00  2.344760000e-01
 7.637760000e+00  2.308710200e+01  4.997641900e+01  1.245060000e+00  1.321020000e-01  4.064190000e-01  1.316359277e+00  2.316880000e-01
 7.692960000e+00  2.006916890e+01  5.125480600e+01  1.122960000e+00  6.916890000e-02  4.428060000e-01  1.209090837e+00  2.258010000e-01
 7.753442000e+00  1.700064897e+01  5.230144800e+01  9.829420000e-01  4.648970000e-03  4.334480000e-01  1.074278249e+00  2.191470000e-01
 7.845030000e+00  1.391234670e+01  5.311850100e+01  8.276300000e-01 -5.065330000e-02  3.855010000e-01  9.144113925e-01  2.146070000e-01
 7.992674000e+00  1.081076780e+01  5.371774000e+01  6.589740000e-01 -8.723220000e-02  3.097400000e-01  7.333451145e-01  2.152400000e-01
 8.161768000e+00  7.569150800e+00  5.413246500e+01  4.717680000e-01 -9.884920000e-02  2.154650000e-01  5.279785757e-01  2.262590000e-01
 8.025408000e+00  3.922817600e+00  5.442790100e+01  2.523080000e-01 -6.438240000e-02  1.259010000e-01  2.892325744e-01  2.441310000e-01
 1.006610000e+01  3.646125300e+01  4.026183000e+01  1.631500000e+00  1.882530000e-01 -2.121700000e-01  1.655973294e+00  2.130110000e-01
 1.020843000e+01  3.403063700e+01  4.249118930e+01  1.597530000e+00  2.296370000e-01 -3.381070000e-02  1.614304313e+00  2.233300000e-01
 1.038268000e+01  3.145127300e+01  4.454519500e+01  1.547280000e+00  2.402730000e-01  1.281950000e-01  1.571063484e+00  2.301670000e-01
 1.055629000e+01  2.873383400e+01  4.640849800e+01  1.477790000e+00  2.208340000e-01  2.614980000e-01  1.516908746e+00  2.328790000e-01
 1.071340000e+01  2.589672700e+01  4.807062100e+01  1.387500000e+00  1.767270000e-01  3.576210000e-01  1.443704077e+00  2.314990000e-01
 1.085029000e+01  2.295915200e+01  4.951923400e+01  1.276290000e+00  1.161520000e-01  4.122340000e-01  1.346233383e+00  2.268090000e-01
 1.097214000e+01  1.994370790e+01  5.074997800e+01  1.145140000e+00  4.870790000e-02  4.249780000e-01  1.222425613e+00  2.202580000e-01
 1.109282600e+01  1.687227270e+01  5.175937300e+01  9.958260000e-01 -1.572730000e-02  3.993730000e-01  1.073040336e+00  2.139120000e-01
 1.123082500e+01  1.376208690e+01  5.254942200e+01  8.308250000e-01 -6.791310000e-02  3.424220000e-01  9.011854392e-01  2.101700000e-01
 1.139163200e+01  1.060146950e+01  5.313337500e+01  6.516320000e-01 -9.953050000e-02  2.643750000e-01  7.102286424e-01  2.115800000e-01
 1.149474700e+01  7.277542000e+00  5.354797500e+01  4.547470000e-01 -1.038580000e-01  1.749750000e-01  4.981943083e-01  2.228890000e-01
 1.120481700e+01  3.663183000e+00  5.386806000e+01  2.368170000e-01 -6.201700000e-02  1.020600000e-01  2.652256462e-01  2.391830000e-01
 1.290799000e+01  3.622264900e+01  4.000275030e+01  1.696990000e+00  2.666490000e-01 -7.824970000e-02  1.719592907e+00  2.224820000e-01
 1.310079000e+01  3.378391400e+01  4.215278360e+01  1.653790000e+00  2.749140000e-01  6.878360000e-02  1.677894590e+00  2.281610000e-01
 1.333674000e+01  3.119861100e+01  4.412762500e+01  1.593740000e+00  2.586110000e-01  1.976250000e-01  1.626635324e+00  2.308650000e-01
 1.357404000e+01  2.848027000e+01  4.591557800e+01  1.514040000e+00  2.192700000e-01  2.985780000e-01  1.558699867e+00  2.302420000e-01
 1.379246000e+01  2.564521700e+01  4.750760100e+01  1.413460000e+00  1.622170000e-01  3.656010000e-01  1.468961408e+00  2.265200000e-01
 1.398511000e+01  2.271195240e+01  4.889719200e+01  1.292110000e+00  9.495240000e-02  3.961920000e-01  1.354818184e+00  2.205470000e-01
 1.415320000e+01  1.969989890e+01  5.007922200e+01  1.151200000e+00  2.589890000e-02  3.912220000e-01  1.216136031e+00  2.136970000e-01
 1.430469500e+01  1.662559490e+01  5.105172500e+01  9.926950000e-01 -3.640510000e-02  3.547250000e-01  1.054797857e+00  2.077980000e-01
 1.445020900e+01  1.350102410e+01  5.181673500e+01  8.192090000e-01 -8.397590000e-02  2.937350000e-01  8.743200716e-01  2.048690000e-01
 1.458495800e+01  1.031265100e+01  5.238803000e+01  6.329580000e-01 -1.093490000e-01  2.180300000e-01  6.783289132e-01  2.070610000e-01
 1.461652000e+01  6.986439000e+00  5.280243400e+01  4.335200000e-01 -1.063610000e-01  1.384340000e-01  4.673502167e-01  2.189390000e-01
 1.427588900e+01  3.481849600e+00  5.313837510e+01  2.238890000e-01 -6.015040000e-02  8.237510000e-02  2.460284781e-01  2.336550000e-01
 1.570185000e+01  3.585357900e+01  3.959874020e+01  1.750850000e+00  3.115790000e-01  1.174020000e-02  1.778396758e+00  2.262330000e-01
 1.593899000e+01  3.341783700e+01  4.166461000e+01  1.696990000e+00  2.948370000e-01  1.316100000e-01  1.727433098e+00  2.283650000e-01
 1.622889000e+01  3.083674400e+01  4.355335200e+01  1.625890000e+00  2.587440000e-01  2.323520000e-01  1.662664789e+00  2.279860000e-01
 1.652215000e+01  2.812551700e+01  4.526073700e+01  1.535150000e+00  2.055170000e-01  3.067370000e-01  1.578926961e+00  2.249790000e-01
 1.679296000e+01  2.530238700e+01  4.677974900e+01  1.423960000e+00  1.403870000e-01  3.507490000e-01  1.473226205e+00  2.197240000e-01
 1.702980000e+01  2.238313810e+01  4.810738100e+01  1.292800000e+00  7.013810000e-02  3.633810000e-01  1.344729320e+00  2.130940000e-01
 1.723216000e+01  1.938516357e+01  4.923839000e+01  1.143160000e+00  2.163570000e-03  3.463900000e-01  1.194489639e+00  2.063700000e-01
 1.740232800e+01  1.632282230e+01  5.017316900e+01  9.773280000e-01 -5.617770000e-02  3.041690000e-01  1.025107182e+00  2.011390000e-01
 1.754531000e+01  1.320503230e+01  5.091456800e+01  7.983100000e-01 -9.796770000e-02  2.435680000e-01  8.403700952e-01  1.991070000e-01
 1.765023100e+01  1.002522100e+01  5.147402100e+01  6.092310000e-01 -1.167790000e-01  1.740210000e-01  6.442693960e-01  2.021370000e-01
 1.763785600e+01  6.741791000e+00  5.188827700e+01  4.118560000e-01 -1.075090000e-01  1.062770000e-01  4.387235468e-01  2.144680000e-01
 1.730570300e+01  3.353489000e+00  5.223061500e+01  2.127030000e-01 -5.851100000e-02  6.561500000e-02  2.301552336e-01  2.273940000e-01
 1.843235000e+01  3.536576100e+01  3.905712380e+01  1.788350000e+00  3.287610000e-01  6.512380000e-02  1.819483615e+00  2.252960000e-01
 1.871054000e+01  3.294510300e+01  4.103182300e+01  1.723540000e+00  2.941030000e-01  1.618230000e-01  1.755925223e+00  2.248700000e-01
 1.904833000e+01  3.037942700e+01  4.282932600e+01  1.641330000e+00  2.444270000e-01  2.393260000e-01  1.676599434e+00  2.223430000e-01
 1.939092000e+01  2.768753800e+01  4.444952900e+01  1.539920000e+00  1.825380000e-01  2.925290000e-01  1.578051629e+00  2.177870000e-01
 1.970697000e+01  2.488547800e+01  4.589209700e+01  1.418970000e+00  1.134780000e-01  3.190970000e-01  1.458826930e+00  2.116920000e-01
 1.998338000e+01  2.199236470e+01  4.715314600e+01  1.279380000e+00  4.336470000e-02  3.191460000e-01  1.319298242e+00  2.049260000e-01
 2.021396000e+01  1.902163240e+01  4.823104400e+01  1.122960000e+00 -2.136760000e-02  2.950440000e-01  1.161269434e+00  1.986560000e-01
 2.039934300e+01  1.598761220e+01  4.912728400e+01  9.523430000e-01 -7.438780000e-02  2.512840000e-01  9.877420630e-01  1.942520000e-01
 2.054190800e+01  1.289918500e+01  4.984244500e+01  7.709080000e-01 -1.098150000e-01  1.944450000e-01  8.026003593e-01  1.931750000e-01
 2.062943900e+01  9.754340000e+00  5.038832900e+01  5.824390000e-01 -1.222600000e-01  1.333290000e-01  6.098846764e-01  1.969960000e-01
 2.059912300e+01  6.534484000e+00  5.079704400e+01  3.901230000e-01 -1.077160000e-01  7.804400000e-02  4.121766099e-01  2.095220000e-01
 2.029910500e+01  3.252737700e+00  5.114106220e+01  2.021050000e-01 -5.696230000e-02  5.106220000e-02  2.160983177e-01  2.206220000e-01
 2.109095000e+01  3.476804800e+01  3.838742730e+01  1.806950000e+00  3.240480000e-01  8.942730000e-02  1.837953386e+00  2.208330000e-01
 2.140382000e+01  3.237544700e+01  4.026372300e+01  1.731820000e+00  2.774470000e-01  1.667230000e-01  1.761809839e+00  2.186680000e-01
 2.178534000e+01  2.983639000e+01  4.196243600e+01  1.639340000e+00  2.193900000e-01  2.254360000e-01  1.669248034e+00  2.147550000e-01
 2.217240000e+01  2.717413500e+01  4.349026900e+01  1.528400000e+00  1.531350000e-01  2.622690000e-01  1.558281719e+00  2.093190000e-01
 2.253026000e+01  2.440650020e+01  4.485019900e+01  1.399260000e+00  8.350020000e-02  2.761990000e-01  1.428701060e+00  2.029210000e-01
 2.284219000e+01  2.154994440e+01  4.604115900e+01  1.253190000e+00  1.594440000e-02  2.681590000e-01  1.281658554e+00  1.964020000e-01
 2.310031000e+01  1.862004590e+01  4.706285300e+01  1.092310000e+00 -4.395410000e-02  2.408530000e-01  1.119412018e+00  1.908110000e-01
 2.330352300e+01  1.562919080e+01  4.791472000e+01  9.195230000e-01 -9.080920000e-02  1.987200000e-01  9.451235352e-01  1.873340000e-01
 2.345145800e+01  1.258631200e+01  4.860088700e+01  7.384580000e-01 -1.196880000e-01  1.478870000e-01  7.625719637e-01  1.872110000e-01
 2.353535100e+01  9.494826000e+00  4.912942130e+01  5.533510000e-01 -1.261740000e-01  9.642130000e-02  5.756859166e-01  1.917010000e-01
 2.350409100e+01  6.348454000e+00  4.953136840e+01  3.680910000e-01 -1.072460000e-01  5.336840000e-02  3.870928505e-01  2.042200000e-01
 2.324458000e+01  3.164497300e+00  4.987045370e+01  1.915800000e-01 -5.540270000e-02  3.845370000e-02  2.031035268e-01  2.135630000e-01
 2.366593000e+01  3.406987800e+01  3.760177600e+01  1.805930000e+00  3.028780000e-01  9.177600000e-02  1.833450594e+00  2.139080000e-01
 2.401174000e+01  3.171621700e+01  3.937008000e+01  1.721740000e+00  2.492170000e-01  1.530800000e-01  1.746405230e+00  2.106540000e-01
 2.443342000e+01  2.921597900e+01  4.096294200e+01  1.620420000e+00  1.869790000e-01  1.969420000e-01  1.643018038e+00  2.059500000e-01
 2.486166000e+01  2.659276100e+01  4.239352800e+01  1.501660000e+00  1.197610000e-01  2.215280000e-01  1.522629340e+00  2.001400000e-01
 2.525926000e+01  2.386910750e+01  4.366481300e+01  1.366260000e+00  5.210750000e-02  2.268130000e-01  1.385938569e+00  1.938260000e-01
 2.560488000e+01  2.106087560e+01  4.478026200e+01  1.215880000e+00 -1.112440000e-02  2.142620000e-01  1.234664380e+00  1.878090000e-01
 2.589089000e+01  1.818286020e+01  4.573972800e+01  1.052890000e+00 -6.513980000e-02  1.867280000e-01  1.071301961e+00  1.830320000e-01
 2.611436200e+01  1.524760700e+01  4.654442900e+01  8.803620000e-01 -1.053930000e-01  1.484290000e-01  8.989861531e-01  1.805150000e-01
 2.627408100e+01  1.226318800e+01  4.719497400e+01  7.020810000e-01 -1.278120000e-01  1.049740000e-01  7.212996455e-01  1.812920000e-01
 2.636448300e+01  9.238077000e+00  4.770257050e+01  5.224830000e-01 -1.288230000e-01  6.357050000e-02  5.418718106e-01  1.863270000e-01
 2.634373900e+01  6.171254000e+00  4.809108600e+01  3.457390000e-01 -1.062460000e-01  3.208600000e-02  3.631159319e-01  1.987200000e-01
 2.612700500e+01  3.080597000e+00  4.842167630e+01  1.810050000e-01 -5.380300000e-02  2.767630000e-02  1.908495492e-01  2.064270000e-01
 2.614494000e+01  3.327915200e+01  3.671255700e+01  1.785940000e+00  2.701520000e-01  7.855700000e-02  1.807964322e+00  2.054600000e-01
 2.652634000e+01  3.097526400e+01  3.836382500e+01  1.694340000e+00  2.132640000e-01  1.268250000e-01  1.712411793e+00  2.016070000e-01
 2.698696000e+01  2.852209300e+01  3.984318400e+01  1.585960000e+00  1.500930000e-01  1.591840000e-01  1.600979880e+00  1.965430000e-01
 2.745431000e+01  2.594944480e+01  4.116695900e+01  1.461310000e+00  8.444480000e-02  1.749590000e-01  1.474167050e+00  1.907090000e-01
 2.788774000e+01  2.327861390e+01  4.234479400e+01  1.321740000e+00  2.061390000e-02  1.747940000e-01  1.333407103e+00  1.847280000e-01
 2.826723000e+01  2.052888260e+01  4.337848400e+01  1.169230000e+00 -3.711740000e-02  1.604840000e-01  1.180775850e+00  1.793610000e-01
 2.858135000e+01  1.771235310e+01  4.426985400e+01  1.006350000e+00 -8.464690000e-02  1.348540000e-01  1.018867519e+00  1.754570000e-01
 2.882727000e+01  1.484181600e+01  4.502082500e+01  8.362700000e-01 -1.181840000e-01  1.018250000e-01  8.506957749e-01  1.738850000e-01
 2.900479800e+01  1.192760200e+01  4.563241600e+01  6.627980000e-01 -1.343980000e-01  6.641600000e-02  6.795403566e-01  1.754870000e-01
 2.910739700e+01  8.977453000e+00  4.611194420e+01  4.903970000e-01 -1.304470000e-01  3.494420000e-02  5.086518795e-01  1.809690000e-01
 2.910523600e+01  5.994968000e+00  4.648408300e+01  3.232360000e-01 -1.048320000e-01  1.408300000e-02  3.401023240e-01  1.931800000e-01
 2.893044700e+01  2.996526600e+00  4.680064220e+01  1.704470000e-01 -5.217340000e-02  1.864220000e-02  1.792254867e-01  1.993890000e-01
 2.850526000e+01  3.241445100e+01  3.573822770e+01  1.749260000e+00  2.304510000e-01  5.522770000e-02  1.765238882e+00  1.963270000e-01
 2.892828000e+01  3.017529800e+01  3.725385940e+01  1.652280000e+00  1.732980000e-01  9.285940000e-02  1.663936376e+00  1.921930000e-01
 2.942992000e+01  2.778155400e+01  3.860654600e+01  1.538920000e+00  1.115540000e-01  1.165460000e-01  1.547353234e+00  1.870420000e-01
 2.993745000e+01  2.526624140e+01  3.981630900e+01  1.410450000e+00  4.924140000e-02  1.263090000e-01  1.416950204e+00  1.813890000e-01
 3.040775000e+01  2.265636215e+01  4.089324800e+01  1.268750000e+00 -9.637850000e-03  1.232480000e-01  1.274758613e+00  1.758680000e-01
 3.082012000e+01  1.996972610e+01  4.183922500e+01  1.116120000e+00 -6.127390000e-02  1.092250000e-01  1.123124412e+00  1.712150000e-01
 3.116426200e+01  1.722182700e+01  4.265795390e+01  9.552620000e-01 -1.021730000e-01  8.695390000e-02  9.646376477e-01  1.681910000e-01
 3.143637500e+01  1.442381100e+01  4.334898170e+01  7.893750000e-01 -1.291890000e-01  5.998170000e-02  8.021224923e-01  1.675170000e-01
 3.163522300e+01  1.158536400e+01  4.391572580e+01  6.222230000e-01 -1.396360000e-01  3.272580000e-02  6.385379019e-01  1.698650000e-01
 3.175516600e+01  8.716417000e+00  4.436362530e+01  4.581660000e-01 -1.312830000e-01  1.062530000e-02  4.767223580e-01  1.757140000e-01
 3.177519500e+01  5.821026000e+00  4.471322751e+01  3.011950000e-01 -1.031740000e-01 -7.724910000e-04  3.183769763e-01  1.877330000e-01
 3.164226000e+01  2.914002800e+00  4.501223130e+01  1.602600000e-01 -5.059720000e-02  1.123130000e-02  1.684324385e-01  1.925760000e-01
 3.068288000e+01  3.155530600e+01  3.468627370e+01  1.701880000e+00  1.893060000e-01  2.627370000e-02  1.712577766e+00  1.873210000e-01
 3.116554000e+01  2.941011300e+01  3.602715930e+01  1.602540000e+00  1.341130000e-01  5.515930000e-02  1.609087722e+00  1.830650000e-01
 3.172361000e+01  2.708728900e+01  3.723550230e+01  1.486610000e+00  7.528900000e-02  7.250230000e-02  1.490279943e+00  1.779420000e-01
 3.228124000e+01  2.463306390e+01  3.832370010e+01  1.356240000e+00  1.706390000e-02  7.870010000e-02  1.358628654e+00  1.725140000e-01
 3.279603000e+01  2.208236910e+01  3.929676210e+01  1.214030000e+00 -3.663090000e-02  7.476210000e-02  1.216881274e+00  1.674830000e-01
 3.324761000e+01  1.945664420e+01  4.015451960e+01  1.062610000e+00 -8.235580000e-02  6.251960000e-02  1.067628770e+00  1.635440000e-01
 3.362584400e+01  1.677388300e+01  4.089846340e+01  9.048440000e-01 -1.171170000e-01  4.446340000e-02  9.134747123e-01  1.613470000e-01
 3.392895900e+01  1.404370200e+01  4.152875820e+01  7.439590000e-01 -1.382980000e-01  2.375820000e-02  7.570771312e-01  1.614810000e-01
 3.415362800e+01  1.127726200e+01  4.204723975e+01  5.836280000e-01 -1.437380000e-01  4.239750000e-03  6.010825488e-01  1.644720000e-01
 3.429705800e+01  8.484309000e+00  4.245955113e+01  4.280580000e-01 -1.316910000e-01 -9.448870000e-03  4.479569756e-01  1.706120000e-01
 3.434199400e+01  5.669075000e+00  4.278324460e+01  2.809940000e-01 -1.016250000e-01 -1.275540000e-02  2.990785330e-01  1.824550000e-01
 3.425005600e+01  2.842350800e+00  4.306220601e+01  1.510560000e-01 -4.924920000e-02  5.206010000e-03  1.589669820e-01  1.860670000e-01
 3.257578000e+01  3.086962600e+01  3.354315979e+01  1.655780000e+00  1.536260000e-01 -4.840210000e-03  1.662898609e+00  1.793830000e-01
 3.316547000e+01  2.885563000e+01  3.464420250e+01  1.557470000e+00  1.016300000e-01  1.620250000e-02  1.560866419e+00  1.748850000e-01
 3.381564000e+01  2.660574930e+01  3.568635990e+01  1.440640000e+00  4.574930000e-02  2.935990000e-02  1.441665222e+00  1.696830000e-01
 3.444635000e+01  2.419912557e+01  3.665198220e+01  1.309350000e+00 -8.874430000e-03  3.398220000e-02  1.309820968e+00  1.644300000e-01
 3.502207000e+01  2.168878660e+01  3.752679120e+01  1.167070000e+00 -5.821340000e-02  3.079120000e-02  1.168926552e+00  1.598340000e-01
 3.552494000e+01  1.910488120e+01  3.830236650e+01  1.016940000e+00 -9.911880000e-02  2.136650000e-02  1.021982401e+00  1.564860000e-01
 3.594897700e+01  1.646403000e+01  3.897692613e+01  8.619770000e-01 -1.289700000e-01  7.926130000e-03  8.716079583e-01  1.549410000e-01
 3.629045800e+01  1.378044800e+01  3.955026288e+01  7.054580000e-01 -1.455520000e-01 -6.737120000e-03  7.203483624e-01  1.556900000e-01
 3.654899100e+01  1.106390700e+01  4.002370280e+01  5.509910000e-01 -1.470930000e-01 -1.929720000e-02  5.706135423e-01  1.591650000e-01
 3.672266800e+01  8.323414000e+00  4.040224080e+01  4.026680000e-01 -1.321860000e-01 -2.575920000e-02  4.245917960e-01  1.655270000e-01
 3.679594500e+01  5.563194000e+00  4.069961480e+01  2.639450000e-01 -1.006060000e-01 -2.238520000e-02  2.833542437e-01  1.772730000e-01
 3.674335000e+01  2.791889500e+00  4.095629603e+01  1.433500000e-01 -4.831050000e-02  2.960290000e-04  1.512719886e-01  1.798740000e-01
 3.409465000e+01  3.058695900e+01  3.226301420e+01  1.626650000e+00  1.309590000e-01 -3.698580000e-02  1.632332206e+00  1.729340000e-01
 3.489120000e+01  2.868534150e+01  3.304810430e+01  1.529200000e+00  8.034150000e-02 -2.289570000e-02  1.531480202e+00  1.679070000e-01
 3.568280000e+01  2.646871490e+01  3.391673820e+01  1.410800000e+00  2.571490000e-02 -1.226180000e-02  1.411087612e+00  1.625210000e-01
 3.641473000e+01  2.407208880e+01  3.477248890e+01  1.277730000e+00 -2.691120000e-02 -7.511100000e-03  1.278035439e+00  1.574090000e-01
 3.707046000e+01  2.156640360e+01  3.556230183e+01  1.134460000e+00 -7.359640000e-02 -8.698170000e-03  1.136877997e+00  1.531200000e-01
 3.764044000e+01  1.898858800e+01  3.626936280e+01  9.844400000e-01 -1.114120000e-01 -1.463720000e-02  9.908324757e-01  1.501750000e-01
 3.812282000e+01  1.635596600e+01  3.688561840e+01  8.308200000e-01 -1.380340000e-01 -2.338160000e-02  8.425330598e-01  1.490660000e-01
 3.851389400e+01  1.368248700e+01  3.741054100e+01  6.768940000e-01 -1.515130000e-01 -3.245900000e-02  6.944028104e-01  1.502250000e-01
 3.881427300e+01  1.097967700e+01  3.784507620e+01  5.262730000e-01 -1.503230000e-01 -3.892380000e-02  5.487033234e-01  1.540300000e-01
 3.902099200e+01  8.255011000e+00  3.819272300e+01  3.829920000e-01 -1.332890000e-01 -3.927700000e-02  4.074205595e-01  1.605550000e-01
 3.912545200e+01  5.513637000e+00  3.846868140e+01  2.504520000e-01 -1.003630000e-01 -3.031860000e-02  2.715108719e-01  1.722810000e-01
 3.910927500e+01  2.765984000e+00  3.870318211e+01  1.372750000e-01 -4.781600000e-02 -3.817890000e-03  1.454144827e-01  1.740690000e-01
 4.133446400e+01  2.758256600e+00  3.631860831e+01  1.324640000e-01 -4.774340000e-02 -7.391690000e-03  1.409992221e-01  1.687260000e-01
 4.342882700e+01  2.794138200e+00  3.378411330e+01  1.298270000e-01 -4.846180000e-02 -1.088670000e-02  1.390040151e-01  1.638470000e-01
 4.537540900e+01  2.851841100e+00  3.111969930e+01  1.284090000e-01 -4.965890000e-02 -1.430070000e-02  1.384174398e-01  1.594510000e-01
 4.716262200e+01  2.916995700e+00  2.833639810e+01  1.276220000e-01 -5.110430000e-02 -1.760190000e-02  1.385960001e-01  1.555550000e-01
 4.878015600e+01  2.981939600e+00  2.544722650e+01  1.271560000e-01 -5.266040000e-02 -2.077350000e-02  1.391880180e-01  1.521710000e-01
 5.022386700e+01  3.042552600e+00  2.246416650e+01  1.268670000e-01 -5.424740000e-02 -2.383350000e-02  1.400216120e-01  1.492880000e-01
 5.148467600e+01  3.096880700e+00  1.939918600e+01  1.266760000e-01 -5.581930000e-02 -2.681400000e-02  1.410021057e-01  1.468790000e-01
 5.256053400e+01  3.144060100e+00  1.626324670e+01  1.265340000e-01 -5.733990000e-02 -2.975330000e-02  1.420703211e-01  1.449070000e-01
 5.344439900e+01  3.183804500e+00  1.306931720e+01  1.263990000e-01 -5.879550000e-02 -3.268280000e-02  1.431844385e-01  1.433410000e-01
 5.413521900e+01  3.215759300e+00  9.829055400e+00  1.262190000e-01 -6.014070000e-02 -3.564460000e-02  1.442867883e-01  1.421470000e-01
 5.462895000e+01  3.239403700e+00  6.555567500e+00  1.259500000e-01 -6.139630000e-02 -3.863250000e-02  1.453457196e-01  1.413410000e-01
 5.492647400e+01  3.253984100e+00  3.260554000e+00  1.254740000e-01 -6.241590000e-02 -4.164600000e-02  1.461980115e-01  1.410350000e-01
 4.131804100e+01  5.512954000e+00  3.610290790e+01  2.400410000e-01 -1.009460000e-01 -3.709210000e-02  2.630315580e-01  1.675640000e-01
 4.338151000e+01  5.586412000e+00  3.358560600e+01  2.335100000e-01 -1.026880000e-01 -4.339400000e-02  2.587562264e-01  1.630620000e-01
 4.530020800e+01  5.699881000e+00  3.093370830e+01  2.292080000e-01 -1.052190000e-01 -4.929170000e-02  2.569766855e-01  1.588350000e-01
 4.706208500e+01  5.828440000e+00  2.816121210e+01  2.260850000e-01 -1.081600000e-01 -5.478790000e-02  2.565438107e-01  1.549310000e-01
 4.865854800e+01  5.956918000e+00  2.528212530e+01  2.235480000e-01 -1.112820000e-01 -5.987470000e-02  2.567924678e-01  1.514060000e-01
 5.008231000e+01  6.077053000e+00  2.230941830e+01  2.213100000e-01 -1.144470000e-01 -6.458170000e-02  2.573849799e-01  1.482850000e-01
 5.132623400e+01  6.184831000e+00  1.925403700e+01  2.192340000e-01 -1.175690000e-01 -6.896300000e-02  2.581509479e-01  1.455720000e-01
 5.238525100e+01  6.278304000e+00  1.612891930e+01  2.172510000e-01 -1.205960000e-01 -7.308070000e-02  2.590022798e-01  1.432550000e-01
 5.325630200e+01  6.356530000e+00  1.294799770e+01  2.153020000e-01 -1.234700000e-01 -7.700230000e-02  2.598637072e-01  1.413160000e-01
 5.393534400e+01  6.418928000e+00  9.722720800e+00  2.133440000e-01 -1.261720000e-01 -8.077920000e-02  2.606919927e-01  1.397450000e-01
 5.442025100e+01  6.464671000e+00  6.466914500e+00  2.112510000e-01 -1.286290000e-01 -8.448550000e-02  2.613622091e-01  1.386110000e-01
 5.470994300e+01  6.491561000e+00  3.191881900e+00  2.089430000e-01 -1.309390000e-01 -8.811810000e-02  2.618530094e-01  1.381640000e-01
 4.118446700e+01  8.270389000e+00  3.584321390e+01  3.684670000e-01 -1.351110000e-01 -5.078610000e-02  3.957298831e-01  1.557240000e-01
 4.321451300e+01  8.385523000e+00  3.334284690e+01  3.595130000e-01 -1.378770000e-01 -6.115310000e-02  3.898709606e-01  1.509160000e-01
 4.509984400e+01  8.556269000e+00  3.070527200e+01  3.538440000e-01 -1.413310000e-01 -7.072800000e-02  3.875338409e-01  1.462380000e-01
 4.683086500e+01  8.748530000e+00  2.794636200e+01  3.498650000e-01 -1.451700000e-01 -7.963800000e-02  3.870685445e-01  1.417560000e-01
 4.839764700e+01  8.940420000e+00  2.508105650e+01  3.466470000e-01 -1.491800000e-01 -8.794350000e-02  3.874956441e-01  1.375460000e-01
 4.979472400e+01  9.119982000e+00  2.212129810e+01  3.437240000e-01 -1.532180000e-01 -9.570190000e-02  3.883050313e-01  1.336600000e-01
 5.101587100e+01  9.280808000e+00  1.908001900e+01  3.408710000e-01 -1.571920000e-01 -1.029810000e-01  3.892395790e-01  1.301230000e-01
 5.205497700e+01  9.420069000e+00  1.597114600e+01  3.379770000e-01 -1.610310000e-01 -1.098540000e-01  3.901632182e-01  1.269420000e-01
 5.290796700e+01  9.535908000e+00  1.280760100e+01  3.349670000e-01 -1.646920000e-01 -1.163990000e-01  3.909924208e-01  1.241190000e-01
 5.357176300e+01  9.627589000e+00  9.602427000e+00  3.317630000e-01 -1.681110000e-01 -1.226730000e-01  3.916333252e-01  1.216600000e-01
 5.404523600e+01  9.693809000e+00  6.368648000e+00  3.282360000e-01 -1.712910000e-01 -1.287520000e-01  3.919905048e-01  1.196200000e-01
 5.432727300e+01  9.731891000e+00  3.117962000e+00  3.242730000e-01 -1.741090000e-01 -1.344380000e-01  3.918424406e-01  1.181970000e-01
 4.094090000e+01  1.101628100e+01  3.551724980e+01  5.089000000e-01 -1.537190000e-01 -5.575020000e-02  5.345248598e-01  1.490260000e-01
 4.293062900e+01  1.117644500e+01  3.303614340e+01  4.986290000e-01 -1.575550000e-01 -7.085660000e-02  5.277074146e-01  1.439910000e-01
 4.477355900e+01  1.140523800e+01  3.041716070e+01  4.925590000e-01 -1.617620000e-01 -8.483930000e-02  5.253370537e-01  1.390370000e-01
 4.646356600e+01  1.166180100e+01  2.767603550e+01  4.885660000e-01 -1.661990000e-01 -9.796450000e-02  5.252769624e-01  1.342080000e-01
 4.799237700e+01  1.191626200e+01  2.482865100e+01  4.853770000e-01 -1.707380000e-01 -1.103490000e-01  5.262311266e-01  1.295790000e-01
 4.935533600e+01  1.215472000e+01  2.188793400e+01  4.823360000e-01 -1.752800000e-01 -1.220660000e-01  5.275141739e-01  1.252090000e-01
 5.054412700e+01  1.236824800e+01  1.886781400e+01  4.791270000e-01 -1.797520000e-01 -1.331860000e-01  5.287834852e-01  1.211340000e-01
 5.155559800e+01  1.255190300e+01  1.578122000e+01  4.755980000e-01 -1.840970000e-01 -1.437800000e-01  5.298658806e-01  1.173720000e-01
 5.238565500e+01  1.270374100e+01  1.264109000e+01  4.716550000e-01 -1.882590000e-01 -1.539100000e-01  5.306488276e-01  1.139380000e-01
 5.303121200e+01  1.282278800e+01  9.462560000e+00  4.672120000e-01 -1.922120000e-01 -1.636400000e-01  5.310466604e-01  1.108430000e-01
 5.349012500e+01  1.290810100e+01  6.257234000e+00  4.621250000e-01 -1.958990000e-01 -1.729660000e-01  5.308984564e-01  1.081380000e-01
 5.376322500e+01  1.295470800e+01  3.036450000e+00  4.562250000e-01 -1.992920000e-01 -1.818500000e-01  5.300263903e-01  1.059890000e-01
 4.059480800e+01  1.374333400e+01  3.511423340e+01  6.578080000e-01 -1.566660000e-01 -5.476660000e-02  6.784209467e-01  1.449670000e-01
 4.253220200e+01  1.394954100e+01  3.265904220e+01  6.472020000e-01 -1.614590000e-01 -7.495780000e-02  6.712362544e-01  1.397070000e-01
 4.432354700e+01  1.423786500e+01  3.006317150e+01  6.415470000e-01 -1.661350000e-01 -9.382850000e-02  6.693184435e-01  1.345380000e-01
 4.596219500e+01  1.455720200e+01  2.734525200e+01  6.381950000e-01 -1.707980000e-01 -1.117480000e-01  6.700391260e-01  1.294660000e-01
 4.744254300e+01  1.487352800e+01  2.452113400e+01  6.355430000e-01 -1.754720000e-01 -1.288660000e-01  6.717974201e-01  1.245530000e-01
 4.876075100e+01  1.516886100e+01  2.160475000e+01  6.327510000e-01 -1.801390000e-01 -1.452500000e-01  6.737369292e-01  1.198510000e-01
 4.991041800e+01  1.543323500e+01  1.861205300e+01  6.294180000e-01 -1.847650000e-01 -1.609470000e-01  6.754324990e-01  1.153960000e-01
 5.088836000e+01  1.565969100e+01  1.555400000e+01  6.253600000e-01 -1.893090000e-01 -1.760000000e-01  6.766749789e-01  1.112120000e-01
 5.168948100e+01  1.584726600e+01  1.244654700e+01  6.204810000e-01 -1.937340000e-01 -1.904530000e-01  6.773491561e-01  1.073150000e-01
 5.231169600e+01  1.599200100e+01  9.300877000e+00  6.146960000e-01 -1.979990000e-01 -2.043230000e-01  6.773497359e-01  1.037210000e-01
 5.275287300e+01  1.609391000e+01  6.130877000e+00  6.078730000e-01 -2.020900000e-01 -2.176230000e-01  6.765424764e-01  1.004620000e-01
 5.301581000e+01  1.614903100e+01  2.946865000e+00  5.998100000e-01 -2.059690000e-01 -2.302350000e-01  6.746876465e-01  9.764570000e-02
 4.014607000e+01  1.644199600e+01  3.462800990e+01  8.110700000e-01 -1.450040000e-01 -5.099010000e-02  8.255063266e-01  1.435440000e-01
 4.202192200e+01  1.669438300e+01  3.220465170e+01  8.009220000e-01 -1.506170000e-01 -7.634830000e-02  8.185295313e-01  1.381330000e-01
 4.374926700e+01  1.704148700e+01  2.963763400e+01  7.962670000e-01 -1.555130000e-01 -1.003660000e-01  8.174954204e-01  1.328670000e-01
 4.532496400e+01  1.742188500e+01  2.694755400e+01  7.939640000e-01 -1.601150000e-01 -1.234460000e-01  8.193012641e-01  1.277070000e-01
 4.674711500e+01  1.779936000e+01  2.415326800e+01  7.921150000e-01 -1.646400000e-01 -1.457320000e-01  8.220646682e-01  1.226860000e-01
 4.801171200e+01  1.814981900e+01  2.126874900e+01  7.897120000e-01 -1.691810000e-01 -1.672510000e-01  8.247667250e-01  1.178440000e-01
 4.911328700e+01  1.846224200e+01  1.830999500e+01  7.862870000e-01 -1.737580000e-01 -1.880050000e-01  8.269129150e-01  1.132120000e-01
 5.004963700e+01  1.873064300e+01  1.528900800e+01  7.816370000e-01 -1.783570000e-01 -2.079920000e-01  8.282682484e-01  1.088140000e-01
 5.081567300e+01  1.895005200e+01  1.221979400e+01  7.756730000e-01 -1.829480000e-01 -2.272060000e-01  8.287105285e-01  1.046640000e-01
 5.141033900e+01  1.911949500e+01  9.115559000e+00  7.683390000e-01 -1.875050000e-01 -2.456410000e-01  8.281560510e-01  1.007760000e-01
 5.183252900e+01  1.923799400e+01  5.988448000e+00  7.595290000e-01 -1.920060000e-01 -2.632520000e-01  8.264697341e-01  9.716600000e-02
 5.208205500e+01  1.930056600e+01  2.848552000e+00  7.490550000e-01 -1.964340000e-01 -2.799480000e-01  8.234322025e-01  9.390500000e-02
 3.959604100e+01  1.910187700e+01  3.405792660e+01  9.650410000e-01 -1.201230000e-01 -4.707340000e-02  9.736270188e-01  1.444110000e-01
 4.139904200e+01  1.940164000e+01  3.167155790e+01  9.560420000e-01 -1.263600000e-01 -7.744210000e-02  9.674608179e-01  1.389250000e-01
 4.305082700e+01  1.980476200e+01  2.913836300e+01  9.528270000e-01 -1.312380000e-01 -1.066370000e-01  9.677159471e-01  1.336630000e-01
 4.455384100e+01  2.024446400e+01  2.648297400e+01  9.518410000e-01 -1.355360000e-01 -1.350260000e-01  9.708776016e-01  1.285330000e-01
 4.590693200e+01  2.067929900e+01  2.372331600e+01  9.509320000e-01 -1.397010000e-01 -1.626840000e-01  9.748097875e-01  1.235380000e-01
 4.710696400e+01  2.108204600e+01  2.087842300e+01  9.489640000e-01 -1.439540000e-01 -1.895770000e-01  9.783633611e-01  1.187010000e-01
 4.815241300e+01  2.144062400e+01  1.796036700e+01  9.454130000e-01 -1.483760000e-01 -2.156330000e-01  9.809784751e-01  1.140490000e-01
 4.904007500e+01  2.174702100e+01  1.498421200e+01  9.400750000e-01 -1.529790000e-01 -2.407880000e-01  9.824064541e-01  1.095980000e-01
 4.976588600e+01  2.199825800e+01  1.196101800e+01  9.328860000e-01 -1.577420000e-01 -2.649820000e-01  9.825346243e-01  1.053600000e-01
 5.032782600e+01  2.219036400e+01  8.906247000e+00  9.238260000e-01 -1.626360000e-01 -2.881530000e-01  9.812935841e-01  1.013420000e-01
 5.072684000e+01  2.232335800e+01  5.829568000e+00  9.128400000e-01 -1.676420000e-01 -3.102320000e-01  9.785829549e-01  9.755320000e-02
 5.096277700e+01  2.239325700e+01  2.741298000e+00  8.997770000e-01 -1.727430000e-01 -3.311020000e-01  9.742008664e-01  9.403480000e-02
 3.894646000e+01  2.171222000e+01  3.340273700e+01  1.116460000e+00 -8.378000000e-02 -4.526300000e-02  1.120513614e+00  1.471750000e-01
 4.066525000e+01  2.205962760e+01  3.105973150e+01  1.109250000e+00 -9.037240000e-02 -8.026850000e-02  1.115816188e+00  1.417040000e-01
 4.223084000e+01  2.251702170e+01  2.856652400e+01  1.107840000e+00 -9.497830000e-02 -1.144760000e-01  1.117781328e+00  1.365350000e-01
 4.364935000e+01  2.301324150e+01  2.594989700e+01  1.108350000e+00 -9.875850000e-02 -1.481030000e-01  1.122553991e+00  1.315230000e-01
 4.492246000e+01  2.350059600e+01  2.323286900e+01  1.108460000e+00 -1.024040000e-01 -1.811310000e-01  1.127820283e+00  1.266450000e-01
 4.604994000e+01  2.395273500e+01  2.043258500e+01  1.106940000e+00 -1.062650000e-01 -2.134150000e-01  1.132322558e+00  1.219140000e-01
 4.703125000e+01  2.435451000e+01  1.756319400e+01  1.103250000e+00 -1.104900000e-01 -2.448060000e-01  1.135472844e+00  1.173480000e-01
 4.786217000e+01  2.469689000e+01  1.463884100e+01  1.097170000e+00 -1.151100000e-01 -2.751590000e-01  1.136989356e+00  1.129560000e-01
 4.854169000e+01  2.497589300e+01  1.167065300e+01  1.088690000e+00 -1.201070000e-01 -3.043470000e-01  1.136793167e+00  1.087420000e-01
 4.906782000e+01  2.519055600e+01  8.672643000e+00  1.077820000e+00 -1.254440000e-01 -3.322570000e-01  1.134824596e+00  1.047090000e-01
 4.944058000e+01  2.533691100e+01  5.654325000e+00  1.064580000e+00 -1.310890000e-01 -3.587750000e-01  1.131032450e+00  1.008630000e-01
 4.966088000e+01  2.541397800e+01  2.625122000e+00  1.048880000e+00 -1.370220000e-01 -3.837780000e-01  1.125259897e+00  9.722910000e-02
 3.819927000e+01  2.425595360e+01  3.267071000e+01  1.262270000e+00 -3.804640000e-02 -4.729000000e-02  1.263728383e+00  1.513930000e-01
 3.981955000e+01  2.465243170e+01  3.037661460e+01  1.257550000e+00 -4.456830000e-02 -8.638540000e-02  1.261301222e+00  1.460580000e-01
 4.128729000e+01  2.516342390e+01  2.792776800e+01  1.258290000e+00 -4.857610000e-02 -1.252320000e-01  1.265439218e+00  1.410650000e-01
 4.261148000e+01  2.571339330e+01  2.535614200e+01  1.260480000e+00 -5.160670000e-02 -1.638580000e-01  1.272133061e+00  1.362260000e-01
 4.379569000e+01  2.625042760e+01  2.268695100e+01  1.261690000e+00 -5.457240000e-02 -2.020490000e-01  1.278930648e+00  1.315260000e-01
 4.484169000e+01  2.674803740e+01  1.993843500e+01  1.260690000e+00 -5.796260000e-02 -2.395650000e-01  1.284558418e+00  1.269700000e-01
 4.574990000e+01  2.718803930e+01  1.712485200e+01  1.256900000e+00 -6.196070000e-02 -2.761480000e-01  1.288368913e+00  1.225560000e-01
 4.651915000e+01  2.756338060e+01  1.425943300e+01  1.250150000e+00 -6.661940000e-02 -3.115670000e-01  1.290111298e+00  1.182820000e-01
 4.714643000e+01  2.787008550e+01  1.135337900e+01  1.240430000e+00 -7.191450000e-02 -3.456210000e-01  1.289686844e+00  1.141500000e-01
 4.763282000e+01  2.810420440e+01  8.418562000e+00  1.227820000e+00 -7.779560000e-02 -3.781380000e-01  1.287082925e+00  1.101610000e-01
 4.797540000e+01  2.826478780e+01  5.465134000e+00  1.212400000e+00 -8.421220000e-02 -4.089660000e-01  1.282286491e+00  1.063180000e-01
 4.817816000e+01  2.834987420e+01  2.501738000e+00  1.194160000e+00 -9.112580000e-02 -4.379620000e-01  1.275199094e+00  1.026450000e-01
 3.734820000e+01  2.669953060e+01  3.189299550e+01  1.399200000e+00  1.453060000e-02 -5.400450000e-02  1.400317201e+00  1.566240000e-01
 3.885083000e+01  2.715078802e+01  2.966167380e+01  1.397830000e+00  8.788020000e-03 -9.632620000e-02  1.401172607e+00  1.516130000e-01
 4.020828000e+01  2.771889524e+01  2.726568100e+01  1.401280000e+00  5.895240000e-03 -1.393190000e-01  1.408201042e+00  1.468680000e-01
 4.142842000e+01  2.832097030e+01  2.474345900e+01  1.405420000e+00  3.970300000e-03 -1.825410000e-01  1.417230523e+00  1.422620000e-01
 4.251698000e+01  2.890687435e+01  2.212538200e+01  1.407980000e+00  1.874350000e-03 -2.256180000e-01  1.425943433e+00  1.378040000e-01
 4.347669000e+01  2.944709134e+01  1.943086800e+01  1.407690000e+00 -9.086620000e-04 -2.681320000e-01  1.432999208e+00  1.334690000e-01
 4.430800000e+01  2.992438713e+01  1.667530000e+01  1.404000000e+00 -4.612870000e-03 -3.097000000e-01  1.437759148e+00  1.292360000e-01
 4.501076000e+01  3.033171316e+01  1.387100600e+01  1.396760000e+00 -9.286840000e-03 -3.499940000e-01  1.439972411e+00  1.251020000e-01
 4.558402000e+01  3.066409950e+01  1.102926100e+01  1.386020000e+00 -1.490050000e-02 -3.887390000e-01  1.439580312e+00  1.210670000e-01
 4.602589000e+01  3.091861780e+01  8.160197000e+00  1.371890000e+00 -2.138220000e-02 -4.257030000e-01  1.436580111e+00  1.171340000e-01
 4.633753000e+01  3.109334340e+01  5.273809000e+00  1.354530000e+00 -2.865660000e-02 -4.606910000e-01  1.431016743e+00  1.133090000e-01
 4.652000000e+01  3.118734410e+01  2.377454000e+00  1.334000000e+00 -3.665590000e-02 -4.935460000e-01  1.422844794e+00  1.096190000e-01
 3.638100000e+01  2.897147960e+01  3.115559860e+01  1.523000000e+00  7.047960000e-02 -6.440140000e-02  1.525989487e+00  1.624600000e-01
 3.773064000e+01  2.949588400e+01  2.901513200e+01  1.526640000e+00  6.688400000e-02 -1.088680000e-01  1.531977611e+00  1.580060000e-01
 3.896170000e+01  3.013308360e+01  2.667967400e+01  1.533700000e+00  6.608360000e-02 -1.553260000e-01  1.542961081e+00  1.536460000e-01
 4.007359000e+01  3.079778780e+01  2.420611700e+01  1.540590000e+00  6.578780000e-02 -2.028830000e-01  1.555283606e+00  1.494070000e-01
 4.106602000e+01  3.143796460e+01  2.163329300e+01  1.545020000e+00  6.496460000e-02 -2.507070000e-01  1.566576267e+00  1.452550000e-01
 4.193986000e+01  3.202404260e+01  1.898487800e+01  1.545860000e+00  6.304260000e-02 -2.981220000e-01  1.575605990e+00  1.411580000e-01
 4.269565000e+01  3.254181760e+01  1.627939800e+01  1.542650000e+00  5.981760000e-02 -3.446020000e-01  1.581802044e+00  1.371040000e-01
 4.333330000e+01  3.298224450e+01  1.352828600e+01  1.535300000e+00  5.524450000e-02 -3.897140000e-01  1.584952695e+00  1.330950000e-01
 4.385188000e+01  3.334237680e+01  1.074189300e+01  1.523880000e+00  4.937680000e-02 -4.331070000e-01  1.585001576e+00  1.291370000e-01
 4.425159000e+01  3.361931130e+01  7.929616000e+00  1.508590000e+00  4.231130000e-02 -4.744840000e-01  1.582014254e+00  1.252390000e-01
 4.453162000e+01  3.381115540e+01  5.100886000e+00  1.489620000e+00  3.415540000e-02 -5.136140000e-01  1.576050024e+00  1.214100000e-01
 4.469311000e+01  3.391701330e+01  2.261783000e+00  1.467110000e+00  2.501330000e-02 -5.503170000e-01  1.567126740e+00  1.176850000e-01
 3.528733000e+01  3.096539100e+01  3.060162390e+01  1.629330000e+00  1.253910000e-01 -7.537610000e-02  1.635885298e+00  1.683980000e-01
 3.642443000e+01  3.160965000e+01  2.858352800e+01  1.640430000e+00  1.266500000e-01 -1.204720000e-01  1.649716433e+00  1.649400000e-01
 3.751224000e+01  3.235129500e+01  2.630476700e+01  1.653240000e+00  1.292950000e-01 -1.702330000e-01  1.667002990e+00  1.612900000e-01
 3.851702000e+01  3.309962100e+01  2.386065000e+01  1.664020000e+00  1.316210000e-01 -2.223500000e-01  1.683961452e+00  1.575420000e-01
 3.941911000e+01  3.380767800e+01  2.131283000e+01  1.671110000e+00  1.326780000e-01 -2.751700000e-01  1.698802700e+00  1.537180000e-01
 4.021569000e+01  3.445207200e+01  1.869127400e+01  1.673690000e+00  1.320720000e-01 -3.277260000e-01  1.710580475e+00  1.498480000e-01
 4.090248000e+01  3.501765000e+01  1.601365900e+01  1.671480000e+00  1.296500000e-01 -3.793410000e-01  1.718881644e+00  1.459450000e-01
 4.148147000e+01  3.549841700e+01  1.329350300e+01  1.664470000e+00  1.254170000e-01 -4.294970000e-01  1.723559537e+00  1.420260000e-01
 4.195181000e+01  3.589145800e+01  1.053923700e+01  1.652810000e+00  1.194580000e-01 -4.777630000e-01  1.724618391e+00  1.381050000e-01
 4.231073000e+01  3.619490700e+01  7.760719000e+00  1.636730000e+00  1.119070000e-01 -5.237810000e-01  1.722136698e+00  1.341990000e-01
 4.256048000e+01  3.640690600e+01  4.966632000e+00  1.616480000e+00  1.029060000e-01 -5.672680000e-01  1.716213920e+00  1.303240000e-01
 4.270129000e+01  3.652561080e+01  2.163295000e+00  1.592290000e+00  9.261080000e-02 -6.080050000e-01  1.706937106e+00  1.265220000e-01
 3.119700000e+00 -1.039670000e-37  5.157100000e+01  6.836460000e-37 -1.039670000e-37  1.775410000e-37  7.139340285e-37  2.623650000e-01
 6.228100000e+00 -7.274730000e-38  5.129200000e+01  5.947840000e-37 -7.274730000e-38  6.112480000e-38  6.023258400e-37  2.527990000e-01
 9.313300000e+00 -6.718050000e-38  5.082100000e+01  5.512190000e-37 -6.718050000e-38 -0.000000000e+00  5.552977630e-37  2.428680000e-01
 1.236400000e+01 -7.772680000e-38  5.016500000e+01  5.206910000e-37 -7.772680000e-38 -6.656280000e-38  5.306516553e-37  2.325910000e-01
 1.537100000e+01 -9.336260000e-38  4.932700000e+01  4.860520000e-37 -9.336260000e-38 -1.127850000e-37  5.076254308e-37  2.221540000e-01
 1.832100000e+01 -1.128390000e-37  4.830900000e+01  4.492530000e-37 -1.128390000e-37 -1.492080000e-37  4.866455848e-37  2.118310000e-01
 2.120500000e+01 -1.349840000e-37  4.711500000e+01  4.109280000e-37 -1.349840000e-37 -1.764720000e-37  4.671454465e-37  2.017760000e-01
 2.401000000e+01 -1.593140000e-37  4.574800000e+01  3.729940000e-37 -1.593140000e-37 -1.953240000e-37  4.501743436e-37  1.920960000e-01
 2.672900000e+01 -1.856610000e-37  4.421500000e+01  3.364290000e-37 -1.856610000e-37 -2.068240000e-37  4.363835995e-37  1.828600000e-01
 2.935000000e+01 -2.136920000e-37  4.252100000e+01  3.015950000e-37 -2.136920000e-37 -2.119820000e-37  4.260987951e-37  1.741100000e-01
 3.186500000e+01 -2.424420000e-37  4.067300000e+01  2.682340000e-37 -2.424420000e-37 -2.117320000e-37  4.189964701e-37  1.658750000e-01
 3.426000000e+01 -2.712260000e-37  3.867200000e+01  2.359080000e-37 -2.712260000e-37 -2.063610000e-37  4.144888296e-37  1.581770000e-01
 3.653400000e+01 -3.010380000e-37  3.653400000e+01  2.051210000e-37 -3.010380000e-37 -1.958480000e-37  4.135878881e-37  1.510190000e-01
 3.867200000e+01 -3.293560000e-37  3.426000000e+01  1.738260000e-37 -3.293560000e-37 -1.811710000e-37  4.141422271e-37  1.443960000e-01
 4.067300000e+01 -3.565350000e-37  3.186500000e+01  1.424240000e-37 -3.565350000e-37 -1.604070000e-37  4.160915857e-37  1.383430000e-01
 4.252100000e+01 -3.832740000e-37  2.935000000e+01  1.138950000e-37 -3.832740000e-37 -1.357190000e-37  4.222448070e-37  1.328480000e-01
 4.421500000e+01 -4.097740000e-37  2.672900000e+01  8.907770000e-38 -4.097740000e-37 -1.073660000e-37  4.328706801e-37  1.278750000e-01
 4.574800000e+01 -4.366150000e-37  2.401000000e+01  6.906750000e-38 -4.366150000e-37 -7.669430000e-38  4.486479616e-37  1.234020000e-01
 4.711500000e+01 -4.637750000e-37  2.120500000e+01  5.401280000e-38 -4.637750000e-37 -4.469560000e-38  4.690440596e-37  1.193950000e-01
 4.830900000e+01 -4.910610000e-37  1.832100000e+01  4.384970000e-38 -4.910610000e-37 -1.219770000e-38  4.931657792e-37  1.158170000e-01
 4.932700000e+01 -5.184110000e-37  1.537100000e+01  3.834510000e-38 -5.184110000e-37  2.019330000e-38  5.202192624e-37  1.126350000e-01
 5.016500000e+01 -5.458310000e-37  1.236400000e+01  3.750790000e-38 -5.458310000e-37  5.206860000e-38  5.495902676e-37  1.098220000e-01
 5.082100000e+01 -5.736160000e-37  9.313300000e+00  4.096970000e-38 -5.736160000e-37  8.290000000e-38  5.810217223e-37  1.073560000e-01
 5.129200000e+01 -6.016800000e-37  6.228100000e+00  4.888990000e-38 -6.016800000e-37  1.125750000e-37  6.140701714e-37  1.052220000e-01
 5.157100000e+01 -6.327480000e-37  3.119700000e+00  5.782050000e-38 -6.327480000e-37  1.422090000e-37  6.511041709e-37  1.034240000e-01
 2.918400000e+00  5.810830000e-37  4.824500000e+01  1.176290000e-36  5.810830000e-37  1.439240000e-37  1.319859741e-36  2.687880000e-01
 5.826100000e+00  5.892900000e-37  4.798200000e+01  1.152820000e-36  5.892900000e-37  3.646970000e-38  1.295216853e-36  2.550210000e-01
 8.712400000e+00  5.700070000e-37  4.754200000e+01  1.118670000e-36  5.700070000e-37 -6.089430000e-38  1.256995889e-36  2.416530000e-01
 1.156700000e+01  5.491920000e-37  4.692900000e+01  1.072910000e-36  5.491920000e-37 -1.497520000e-37  1.214567158e-36  2.287640000e-01
 1.437900000e+01  5.274940000e-37  4.614500000e+01  1.017780000e-36  5.274940000e-37 -2.298280000e-37  1.169165069e-36  2.163490000e-01
 1.713900000e+01  5.027700000e-37  4.519200000e+01  9.546810000e-37  5.027700000e-37 -2.998000000e-37  1.119854243e-36  2.044320000e-01
 1.983700000e+01  4.750490000e-37  4.407500000e+01  8.856350000e-37  4.750490000e-37 -3.592190000e-37  1.067267162e-36  1.930790000e-01
 2.246100000e+01  4.443660000e-37  4.279700000e+01  8.129410000e-37  4.443660000e-37 -4.077220000e-37  1.012211164e-36  1.823240000e-01
 2.500400000e+01  4.114960000e-37  4.136200000e+01  7.388890000e-37  4.114960000e-37 -4.460660000e-37  9.561698535e-37  1.721850000e-01
 2.745700000e+01  3.774800000e-37  3.977800000e+01  6.653450000e-37  3.774800000e-37 -4.754530000e-37  9.006834486e-37  1.626660000e-01
 2.980900000e+01  3.437730000e-37  3.804800000e+01  5.937900000e-37  3.437730000e-37 -4.972730000e-37  8.473764666e-37  1.537610000e-01
 3.205000000e+01  3.120000000e-37  3.617800000e+01  5.251940000e-37  3.120000000e-37 -5.131870000e-37  7.978305801e-37  1.454730000e-01
 3.417700000e+01  2.818750000e-37  3.417700000e+01  4.606210000e-37  2.818750000e-37 -5.244020000e-37  7.527434350e-37  1.377510000e-01
 4.824500000e+01 -9.425740000e-38  2.918400000e+00 -7.108220000e-38 -9.425740000e-38 -1.306600000e-37  1.760942140e-37  7.641160000e-02
 4.798200000e+01 -8.779570000e-38  5.826100000e+00 -5.856520000e-38 -8.779570000e-38 -1.580030000e-37  1.900076725e-37  7.987960000e-02
 4.754200000e+01 -8.180240000e-38  8.712400000e+00 -4.412530000e-38 -8.180240000e-38 -1.827290000e-37  2.050086881e-37  8.361970000e-02
 4.692900000e+01 -7.522970000e-38  1.156700000e+01 -2.724950000e-38 -7.522970000e-38 -2.053220000e-37  2.203614456e-37  8.762340000e-02
 4.614500000e+01 -6.757640000e-38  1.437900000e+01 -0.000000000e+00 -6.757640000e-38 -2.265750000e-37  2.364377306e-37  9.189200000e-02
 4.519200000e+01 -5.860860000e-38  1.713900000e+01  1.539100000e-38 -5.860860000e-38 -2.460310000e-37  2.533833140e-37  9.643110000e-02
 4.407500000e+01 -4.798840000e-38  1.983700000e+01  4.121940000e-38 -4.798840000e-38 -2.635360000e-37  2.710224138e-37  1.012540000e-01
 4.279700000e+01 -3.564920000e-38  2.246100000e+01  7.008730000e-38 -3.564920000e-38 -2.788270000e-37  2.897025906e-37  1.063810000e-01
 4.136200000e+01 -2.162170000e-38  2.500400000e+01  1.018550000e-37 -2.162170000e-38 -2.916370000e-37  3.096676908e-37  1.118350000e-01
 3.977800000e+01  0.000000000e+00  2.745700000e+01  1.362440000e-37 -0.000000000e+00 -3.016330000e-37  3.309756701e-37  1.176500000e-01
 3.804800000e+01  0.000000000e+00  2.980900000e+01  1.724840000e-37  0.000000000e+00 -3.078050000e-37  3.528379915e-37  1.238650000e-01
 3.617800000e+01  2.978990000e-38  3.205000000e+01  2.110290000e-37  2.978990000e-38 -3.102140000e-37  3.763687059e-37  1.305460000e-01
 5.177010000e+00  3.097184200e+01  3.145741700e+01  2.923510000e+00 -8.791580000e-01 -2.515830000e-01  3.063188456e+00  6.109480000e-01
 4.968190000e+00  2.916561800e+01  3.349746180e+01  2.683190000e+00 -7.333820000e-01 -5.553820000e-02  2.782165025e+00  6.064360000e-01
 4.769010000e+00  2.725858800e+01  3.539463400e+01  2.430510000e+00 -5.834120000e-01  1.186340000e-01  2.502363372e+00  5.946980000e-01
 4.575930000e+00  2.524778800e+01  3.713380600e+01  2.174030000e+00 -4.392120000e-01  2.638060000e-01  2.233586181e+00  5.757070000e-01
 4.388370000e+00  2.313505600e+01  3.870678800e+01  1.920070000e+00 -3.079440000e-01  3.747880000e-01  1.980395000e+00  5.497340000e-01
 4.207530000e+00  2.092716100e+01  4.010234700e+01  1.672830000e+00 -1.938390000e-01  4.483470000e-01  1.742684366e+00  5.174510000e-01
 4.036130000e+00  1.863202660e+01  4.131738900e+01  1.435130000e+00 -9.897340000e-02  4.833890000e-01  1.517583202e+00  4.798510000e-01
 3.878760000e+00  1.626312830e+01  4.234514100e+01  1.208760000e+00 -2.387170000e-02  4.811410000e-01  1.301217606e+00  4.383070000e-01
 3.744893000e+00  1.383683250e+01  4.318717300e+01  9.947930000e-01  3.183250000e-02  4.451730000e-01  1.090323540e+00  3.946790000e-01
 3.650142000e+00  1.137737950e+01  4.384387600e+01  7.940420000e-01  6.837950000e-02  3.818760000e-01  8.837464190e-01  3.516970000e-01
 3.614913000e+00  8.903974400e+00  4.432480100e+01  6.060130000e-01  8.607440000e-02  2.998010000e-01  6.815725920e-01  3.134920000e-01
 3.661496000e+00  6.367281500e+00  4.464788600e+01  4.250960000e-01  8.318150000e-02  2.068860000e-01  4.800287368e-01  2.846870000e-01
 3.693479000e+00  3.509904100e+00  4.485043100e+01  2.330790000e-01  5.300410000e-02  1.174310000e-01  2.663180328e-01  2.724760000e-01
 7.258910000e+00  3.118661600e+01  3.139957500e+01  2.741210000e+00 -5.763840000e-01 -1.554250000e-01  2.805460338e+00  5.907790000e-01
 7.111170000e+00  2.936772400e+01  3.339223080e+01  2.529570000e+00 -4.652760000e-01  1.623080000e-02  2.572055516e+00  5.817030000e-01
 6.993310000e+00  2.744777700e+01  3.524221800e+01  2.304210000e+00 -3.502230000e-01  1.672180000e-01  2.336664660e+00  5.655140000e-01
 6.890920000e+00  2.542456700e+01  3.693875900e+01  2.073220000e+00 -2.404330000e-01  2.907590000e-01  2.107270745e+00  5.428450000e-01
 6.796010000e+00  2.330293400e+01  3.847125200e+01  1.842210000e+00 -1.420660000e-01  3.822520000e-01  1.886806038e+00  5.142390000e-01
 6.706290000e+00  2.108751990e+01  3.983323200e+01  1.614990000e+00 -5.848010000e-02  4.392320000e-01  1.674675303e+00  4.805410000e-01
 6.624190000e+00  1.878989216e+01  4.101828200e+01  1.394090000e+00  8.892160000e-03  4.612820000e-01  1.468450572e+00  4.428350000e-01
 6.556560000e+00  1.642283420e+01  4.202311600e+01  1.181260000e+00  5.983420000e-02  4.501160000e-01  1.265527452e+00  4.025420000e-01
 6.517027000e+00  1.400072080e+01  4.284752300e+01  9.775270000e-01  9.472080000e-02  4.095230000e-01  1.064067739e+00  3.615930000e-01
 6.525171000e+00  1.153880200e+01  4.349055000e+01  7.836710000e-01  1.138020000e-01  3.455500000e-01  8.639999618e-01  3.227540000e-01
 6.598495000e+00  9.033645000e+00  4.396366800e+01  5.981950000e-01  1.170450000e-01  2.656680000e-01  6.649182478e-01  2.900000000e-01
 6.704487000e+00  6.375324000e+00  4.429054100e+01  4.126870000e-01  1.015240000e-01  1.765410000e-01  4.602003990e-01  2.680410000e-01
 6.572803000e+00  3.319126600e+00  4.452568580e+01  2.130030000e-01  5.682660000e-02  9.668580000e-02  2.407232527e-01  2.588910000e-01
 9.352510000e+00  3.125177100e+01  3.126171680e+01  2.576110000e+00 -3.222290000e-01 -7.728320000e-02  2.597334586e+00  5.595790000e-01
 9.259180000e+00  2.942460600e+01  3.320382380e+01  2.387580000e+00 -2.403940000e-01  7.182380000e-02  2.400726180e+00  5.472540000e-01
 9.215580000e+00  2.749389400e+01  3.500212300e+01  2.184380000e+00 -1.551060000e-01  2.011230000e-01  2.199096250e+00  5.281200000e-01
 9.196660000e+00  2.545832110e+01  3.664839900e+01  1.974060000e+00 -7.467890000e-02  3.043990000e-01  1.998786775e+00  5.033430000e-01
 9.186780000e+00  2.332361862e+01  3.813576200e+01  1.761680000e+00 -4.381380000e-03  3.777620000e-01  1.801732430e+00  4.736980000e-01
 9.179820000e+00  2.109618950e+01  3.945744200e+01  1.550620000e+00  5.318950000e-02  4.194420000e-01  1.607228390e+00  4.401290000e-01
 9.175970000e+00  1.878709200e+01  4.060862800e+01  1.343170000e+00  9.709200000e-02  4.296280000e-01  1.413546152e+00  4.037650000e-01
 9.180980000e+00  1.640533400e+01  4.158540500e+01  1.140880000e+00  1.273340000e-01  4.104050000e-01  1.219119923e+00  3.660300000e-01
 9.205760000e+00  1.396128500e+01  4.238766600e+01  9.447600000e-01  1.442850000e-01  3.656660000e-01  1.023279650e+00  3.288370000e-01
 9.263998000e+00  1.146403400e+01  4.301621800e+01  7.552980000e-01  1.480340000e-01  3.012180000e-01  8.265115955e-01  2.948540000e-01
 9.358574000e+00  8.893147000e+00  4.348138900e+01  5.709740000e-01  1.379470000e-01  2.243890000e-01  6.288013254e-01  2.678170000e-01
 9.417144000e+00  6.149589000e+00  4.381196700e+01  3.845440000e-01  1.102890000e-01  1.429670000e-01  4.248262169e-01  2.526230000e-01
 9.166166000e+00  3.104232600e+00  4.407034720e+01  1.926660000e-01  5.633260000e-02  7.934720000e-02  2.158460737e-01  2.463640000e-01
 1.144483000e+01  3.118079900e+01  3.103481310e+01  2.426530000e+00 -1.142010000e-01 -1.818690000e-02  2.429283942e+00  5.228500000e-01
 1.139948000e+01  2.935191180e+01  3.292119500e+01  2.256880000e+00 -5.708820000e-02  1.101950000e-01  2.260289657e+00  5.084180000e-01
 1.142259000e+01  2.741389279e+01  3.466046000e+01  2.071890000e+00  2.892790000e-03  2.194600000e-01  2.083482477e+00  4.875840000e-01
 1.147899000e+01  2.537037210e+01  3.625014700e+01  1.878590000e+00  5.837210000e-02  3.041470000e-01  1.903946713e+00  4.619140000e-01
 1.154548000e+01  2.322596200e+01  3.768515100e+01  1.681580000e+00  1.049620000e-01  3.611510000e-01  1.723124593e+00  4.323720000e-01
 1.161092000e+01  2.098968900e+01  3.896142700e+01  1.483920000e+00  1.406890000e-01  3.894270000e-01  1.540605514e+00  3.999680000e-01
 1.167169000e+01  1.867000200e+01  4.007270000e+01  1.287690000e+00  1.650020000e-01  3.897000000e-01  1.355447264e+00  3.658390000e-01
 1.173136000e+01  1.627506400e+01  4.101838000e+01  1.094360000e+00  1.780640000e-01  3.643800000e-01  1.167091848e+00  3.313810000e-01
 1.179694000e+01  1.381317800e+01  4.179649600e+01  9.049400000e-01  1.801780000e-01  3.174960000e-01  9.757992751e-01  2.984490000e-01
 1.187303100e+01  1.128627500e+01  4.240979800e+01  7.200310000e-01  1.712750000e-01  2.547980000e-01  7.827526987e-01  2.696400000e-01
 1.195351400e+01  8.677122000e+00  4.286874800e+01  5.385140000e-01  1.502220000e-01  1.837480000e-01  5.884957986e-01  2.484300000e-01
 1.196049900e+01  5.917110000e+00  4.320205900e+01  3.564990000e-01  1.139100000e-01  1.130590000e-01  3.909595409e-01  2.390800000e-01
 1.167411600e+01  2.953452900e+00  4.347498140e+01  1.771160000e-01  5.545290000e-02  6.498140000e-02  1.966410026e-01  2.347240000e-01
 1.352524000e+01  3.098245030e+01  3.071547050e+01  2.290240000e+00  5.145030000e-02  2.247050000e-02  2.290928047e+00  4.830140000e-01
 1.352106000e+01  2.916003760e+01  3.253905500e+01  2.136060000e+00  8.803760000e-02  1.320550000e-01  2.141948054e+00  4.675780000e-01
 1.360410000e+01  2.722283100e+01  3.421418700e+01  1.966100000e+00  1.268310000e-01  2.231870000e-01  1.982787873e+00  4.462060000e-01
 1.372689000e+01  2.517749700e+01  3.574028500e+01  1.786890000e+00  1.614970000e-01  2.912850000e-01  1.817664464e+00  4.207320000e-01
 1.386171000e+01  2.303147200e+01  3.711609500e+01  1.602710000e+00  1.884720000e-01  3.340950000e-01  1.647974668e+00  3.922540000e-01
 1.398939000e+01  2.079231800e+01  3.833924500e+01  1.416390000e+00  2.063180000e-01  3.512450000e-01  1.473804871e+00  3.618120000e-01
 1.410489000e+01  1.847077200e+01  3.940794200e+01  1.229890000e+00  2.147720000e-01  3.439420000e-01  1.295010627e+00  3.305310000e-01
 1.420768000e+01  1.607307500e+01  4.031786600e+01  1.044680000e+00  2.140750000e-01  3.148660000e-01  1.111901527e+00  2.997610000e-01
 1.429988800e+01  1.360547300e+01  4.107013100e+01  8.618880000e-01  2.044730000e-01  2.681310000e-01  9.255022234e-01  2.712980000e-01
 1.438429500e+01  1.107070800e+01  4.166741100e+01  6.822950000e-01  1.857080000e-01  2.094110000e-01  7.374733183e-01  2.476180000e-01
 1.444877600e+01  8.454641000e+00  4.211910800e+01  5.057760000e-01  1.566410000e-01  1.461080000e-01  5.492661584e-01  2.316690000e-01
 1.442513400e+01  5.718687000e+00  4.245391450e+01  3.311340000e-01  1.146870000e-01  8.691450000e-02  3.610498085e-01  2.269220000e-01
 1.414958400e+01  2.845857400e+00  4.273242610e+01  1.645840000e-01  5.425740000e-02  5.242610000e-02  1.810531813e-01  2.236270000e-01
 1.558248000e+01  3.066646200e+01  3.030352910e+01  2.164480000e+00  1.794620000e-01  4.652910000e-02  2.172405403e+00  4.421570000e-01
 1.561413000e+01  2.885934200e+01  3.205929400e+01  2.023130000e+00  1.993420000e-01  1.392940000e-01  2.037693561e+00  4.265970000e-01
 1.574968000e+01  2.693173600e+01  3.366232000e+01  1.865680000e+00  2.207360000e-01  2.143200000e-01  1.890877920e+00  4.056120000e-01
 1.593327000e+01  2.489239200e+01  3.511799600e+01  1.698270000e+00  2.383920000e-01  2.679960000e-01  1.735734310e+00  3.811630000e-01
 1.612696000e+01  2.275252300e+01  3.642889800e+01  1.524960000e+00  2.495230000e-01  2.988980000e-01  1.573882062e+00  3.544310000e-01
 1.631046000e+01  2.052112400e+01  3.759526900e+01  1.348460000e+00  2.531240000e-01  3.072690000e-01  1.405997998e+00  3.264700000e-01
 1.647269000e+01  1.820713500e+01  3.861370800e+01  1.170690000e+00  2.491350000e-01  2.947080000e-01  1.232654100e+00  2.983720000e-01
 1.661217300e+01  1.581883100e+01  3.948506700e+01  9.931730000e-01  2.378310000e-01  2.640670000e-01  1.054840070e+00  2.714410000e-01
 1.672816500e+01  1.336136500e+01  4.020845100e+01  8.171650000e-01  2.193650000e-01  2.194510000e-01  8.740928909e-01  2.473880000e-01
 1.681979700e+01  1.083742000e+01  4.078732100e+01  6.437970000e-01  1.934200000e-01  1.663210000e-01  6.924944394e-01  2.284480000e-01
 1.687584100e+01  8.239739000e+00  4.122974400e+01  4.738410000e-01  1.588390000e-01  1.117440000e-01  5.120955406e-01  2.169720000e-01
 1.684290700e+01  5.548152000e+00  4.156182730e+01  3.079070000e-01  1.135520000e-01  6.382730000e-02  3.343272373e-01  2.157780000e-01
 1.659657400e+01  2.760621700e+00  4.184211620e+01  1.535740000e-01  5.272170000e-02  4.111620000e-02  1.674965463e-01  2.129600000e-01
 1.760877000e+01  3.024174800e+01  2.980235110e+01  2.046770000e+00  2.747480000e-01  5.635110000e-02  2.065896741e+00  4.018540000e-01
 1.767117000e+01  2.845839200e+01  3.148527900e+01  1.916170000e+00  2.813920000e-01  1.342790000e-01  1.941370592e+00  3.868390000e-01
 1.785225000e+01  2.654784000e+01  3.301028500e+01  1.769250000e+00  2.888400000e-01  1.952850000e-01  1.803277666e+00  3.669200000e-01
 1.808786000e+01  2.452393800e+01  3.438874100e+01  1.611860000e+00  2.929380000e-01  2.367410000e-01  1.655279926e+00  3.440760000e-01
 1.833494000e+01  2.239861100e+01  3.562899600e+01  1.447940000e+00  2.916110000e-01  2.579960000e-01  1.499376255e+00  3.195320000e-01
 1.856815000e+01  2.018420600e+01  3.673081800e+01  1.280150000e+00  2.842060000e-01  2.598180000e-01  1.336810557e+00  2.943340000e-01
 1.877344000e+01  1.788979500e+01  3.769508700e+01  1.110440000e+00  2.707950000e-01  2.440870000e-01  1.168753776e+00  2.695380000e-01
 1.894638500e+01  1.552263200e+01  3.852272700e+01  9.403850000e-01  2.516320000e-01  2.137270000e-01  9.966553277e-01  2.463890000e-01
 1.908543600e+01  1.308880700e+01  3.921370900e+01  7.714360000e-01  2.268070000e-01  1.727090000e-01  8.224252647e-01  2.264680000e-01
 1.918803300e+01  1.059192300e+01  3.976916900e+01  6.050330000e-01  1.959230000e-01  1.261690000e-01  6.483589820e-01  2.117150000e-01
 1.924567100e+01  8.029597000e+00  4.019862630e+01  4.426710000e-01  1.578970000e-01  8.062630000e-02  4.768539369e-01  2.039240000e-01
 1.921602900e+01  5.392864000e+00  4.052536450e+01  2.860290000e-01  1.109640000e-01  4.336450000e-02  3.098484759e-01  2.053810000e-01
 1.900532400e+01  2.685342100e+00  4.080182890e+01  1.433240000e-01  5.084210000e-02  3.082890000e-02  1.551680031e-01  2.026780000e-01
 1.959602000e+01  2.971416700e+01  2.921553430e+01  1.935020000e+00  3.421670000e-01  5.453430000e-02  1.965796186e+00  3.633490000e-01
 1.968357000e+01  2.796365900e+01  3.082056000e+01  1.813570000e+00  3.386590000e-01  1.195600000e-01  1.848788970e+00  3.493260000e-01
 1.990365000e+01  2.607924500e+01  3.226160200e+01  1.675650000e+00  3.352450000e-01  1.686020000e-01  1.717154264e+00  3.309110000e-01
 2.018692000e+01  2.407885700e+01  3.355796400e+01  1.526920000e+00  3.288570000e-01  1.999640000e-01  1.574680035e+00  3.100220000e-01
 2.048127000e+01  2.197804300e+01  3.471969000e+01  1.371270000e+00  3.180430000e-01  2.136900000e-01  1.423796397e+00  2.878990000e-01
 2.075841000e+01  1.978944200e+01  3.575195300e+01  1.211410000e+00  3.024420000e-01  2.109530000e-01  1.266288482e+00  2.655580000e-01
 2.100332000e+01  1.752318800e+01  3.665782300e+01  1.049320000e+00  2.821880000e-01  1.938230000e-01  1.103752638e+00  2.440100000e-01
 2.120766300e+01  1.518850500e+01  3.743618400e+01  8.866630000e-01  2.575050000e-01  1.651840000e-01  9.379583437e-01  2.244240000e-01
 2.137105200e+01  1.278939800e+01  3.808879000e+01  7.250520000e-01  2.283980000e-01  1.287900000e-01  7.710077258e-01  2.082250000e-01
 2.148920500e+01  1.033243200e+01  3.861835260e+01  5.662050000e-01  1.944320000e-01  8.935260000e-02  6.052898411e-01  1.970510000e-01
 2.155509400e+01  7.818366000e+00  3.902973400e+01  4.120940000e-01  1.545660000e-01  5.273400000e-02  4.432752959e-01  1.922050000e-01
 2.153602400e+01  5.243361000e+00  3.934631100e+01  2.650240000e-01  1.072610000e-01  2.531100000e-02  2.870248934e-01  1.955600000e-01
 2.136248200e+01  2.613162500e+00  3.961655260e+01  1.334820000e-01  4.866250000e-02  2.155260000e-02  1.437010710e-01  1.927700000e-01
 2.153661000e+01  2.909230200e+01  2.854867690e+01  1.827610000e+00  3.863020000e-01  4.367690000e-02  1.868500794e+00  3.276220000e-01
 2.164512000e+01  2.738330500e+01  3.006965510e+01  1.714120000e+00  3.753050000e-01  9.765510000e-02  1.757440678e+00  3.148560000e-01
 2.190003000e+01  2.553274200e+01  3.142268400e+01  1.584030000e+00  3.637420000e-01  1.366840000e-01  1.630994114e+00  2.981650000e-01
 2.222393000e+01  2.356353800e+01  3.262993800e+01  1.442930000e+00  3.495380000e-01  1.599380000e-01  1.493252813e+00  2.793950000e-01
 2.256076000e+01  2.149381800e+01  3.370802000e+01  1.294760000e+00  3.318180000e-01  1.680200000e-01  1.347121881e+00  2.597460000e-01
 2.287727000e+01  1.933940300e+01  3.466543900e+01  1.142270000e+00  3.104030000e-01  1.624390000e-01  1.194787514e+00  2.401880000e-01
 2.315753200e+01  1.711147600e+01  3.550533200e+01  9.875320000e-01  2.854760000e-01  1.453320000e-01  1.038189476e+00  2.216840000e-01
 2.339329800e+01  1.481820000e+01  3.623048400e+01  8.322980000e-01  2.572000000e-01  1.194840000e-01  8.792884777e-01  2.053160000e-01
 2.358030700e+01  1.246551300e+01  3.684034730e+01  6.783070000e-01  2.255130000e-01  8.834730000e-02  7.202511679e-01  1.923480000e-01
 2.371646800e+01  1.005873400e+01  3.733715930e+01  5.274680000e-01  1.899340000e-01  5.615930000e-02  5.634281519e-01  1.841300000e-01
 2.379604400e+01  7.601377000e+00  3.772806930e+01  3.820440000e-01  1.494770000e-01  2.806930000e-02  4.112041793e-01  1.815620000e-01
 2.379268300e+01  5.093435000e+00  3.803057132e+01  2.446830000e-01  1.027350000e-01  9.571320000e-03  2.655482270e-01  1.862040000e-01
 2.365493000e+01  2.540668800e+00  3.828929780e+01  1.239300000e-01  4.626880000e-02  1.329780000e-02  1.329521652e-01  1.832420000e-01
 2.341966000e+01  2.838331000e+01  2.780833020e+01  1.723660000e+00  4.113100000e-01  2.633020000e-02  1.772250826e+00  2.955610000e-01
 2.354065000e+01  2.673012700e+01  2.923993060e+01  1.617650000e+00  3.951270000e-01  7.093060000e-02  1.666717738e+00  2.841750000e-01
 2.382586000e+01  2.492582900e+01  3.049471900e+01  1.494860000e+00  3.778290000e-01  1.017190000e-01  1.545220996e+00  2.692850000e-01
 2.418576000e+01  2.299722900e+01  3.160663200e+01  1.360760000e+00  3.582290000e-01  1.186320000e-01  1.412115203e+00  2.526200000e-01
 2.456146000e+01  2.096780600e+01  3.259578300e+01  1.219460000e+00  3.358060000e-01  1.227830000e-01  1.270796611e+00  2.352970000e-01
 2.491591000e+01  1.885558800e+01  3.347280900e+01  1.073910000e+00  3.105880000e-01  1.158090000e-01  1.123903607e+00  2.182650000e-01
 2.523027100e+01  1.667175600e+01  3.424286470e+01  9.262710000e-01  2.827560000e-01  9.986470000e-02  9.736025263e-01  2.024400000e-01
 2.549541100e+01  1.442643000e+01  3.490854200e+01  7.784110000e-01  2.524300000e-01  7.754200000e-02  8.219837903e-01  1.888260000e-01
 2.570715700e+01  1.212648900e+01  3.547096150e+01  6.321570000e-01  2.194890000e-01  5.196150000e-02  6.711913969e-01  1.785310000e-01
 2.586353500e+01  9.776724000e+00  3.593085700e+01  4.895350000e-01  1.834240000e-01  2.685700000e-02  5.234598155e-01  1.726440000e-01
 2.595995400e+01  7.382388000e+00  3.629566716e+01  3.529540000e-01  1.432880000e-01  6.667160000e-03  3.809887506e-01  1.717680000e-01
 2.597622800e+01  4.944865200e+00  3.658007715e+01  2.252280000e-01  9.776520000e-02 -3.922850000e-03  2.455627722e-01  1.772200000e-01
 2.587281700e+01  2.469404100e+00  3.682505806e+01  1.148170000e-01  4.380410000e-02  6.058060000e-03  1.230383792e-01  1.740950000e-01
 2.517481000e+01  2.761081300e+01  2.704508041e+01  1.624810000e+00  4.208130000e-01  6.080410000e-03  1.678430245e+00  2.680530000e-01
 2.531198000e+01  2.606105000e+01  2.834295210e+01  1.527980000e+00  4.020500000e-01  4.195210000e-02  1.580546444e+00  2.581690000e-01
 2.563378000e+01  2.433162800e+01  2.947164590e+01  1.412780000e+00  3.816280000e-01  6.564590000e-02  1.464887928e+00  2.449900000e-01
 2.603922000e+01  2.245776300e+01  3.047287050e+01  1.285220000e+00  3.587630000e-01  7.787050000e-02  1.336624537e+00  2.301210000e-01
 2.645812000e+01  2.047349800e+01  3.136661870e+01  1.150120000e+00  3.334980000e-01  7.961870000e-02  1.200140020e+00  2.147410000e-01
 2.685274000e+01  1.840301300e+01  3.216155660e+01  1.010740000e+00  3.060130000e-01  7.255660000e-02  1.058538504e+00  1.997740000e-01
 2.720352300e+01  1.626355900e+01  3.285965790e+01  8.695230000e-01  2.765590000e-01  5.865790000e-02  9.143281015e-01  1.861120000e-01
 2.750144800e+01  1.406525900e+01  3.346528850e+01  7.284480000e-01  2.452590000e-01  4.028850000e-02  7.696828107e-01  1.746860000e-01
 2.774043100e+01  1.181596000e+01  3.397821580e+01  5.894310000e-01  2.119600000e-01  2.021580000e-02  6.267093616e-01  1.664540000e-01
 2.792056500e+01  9.521334000e+00  3.440069394e+01  4.545650000e-01  1.761340000e-01  1.693940000e-03  4.874991227e-01  1.622910000e-01
 2.803830800e+01  7.186772000e+00  3.473551620e+01  3.263080000e-01  1.368720000e-01 -1.148380000e-02  3.540377563e-01  1.626020000e-01
 2.807656000e+01  4.814794300e+00  3.499967110e+01  2.075600000e-01  9.289430000e-02 -1.532890000e-02  2.279155101e-01  1.685260000e-01
 2.800652100e+01  2.407897500e+00  3.522672306e+01  1.065210000e-01  4.149750000e-02 -2.769360000e-04  1.143190388e-01  1.653260000e-01
 2.665332000e+01  2.686393300e+01  2.635014730e+01  1.539320000e+00  4.199330000e-01 -1.285270000e-02  1.595623696e+00  2.462750000e-01
 2.684871000e+01  2.550989800e+01  2.739388110e+01  1.454710000e+00  4.018980000e-01  1.288110000e-02  1.509261114e+00  2.377130000e-01
 2.725380000e+01  2.388843400e+01  2.833528660e+01  1.346800000e+00  3.804340000e-01  3.028660000e-02  1.399827685e+00  2.256450000e-01
 2.773370000e+01  2.207593800e+01  2.920302380e+01  1.224700000e+00  3.559380000e-01  3.902380000e-02  1.275972103e+00  2.119690000e-01
 2.821529000e+01  2.013098500e+01  2.999577990e+01  1.094290000e+00  3.289850000e-01  3.977990000e-02  1.143365285e+00  1.979270000e-01
 2.866356100e+01  1.809208100e+01  3.070869680e+01  9.595610000e-01  3.000810000e-01  3.369680000e-02  1.005952978e+00  1.844280000e-01
 2.906021300e+01  1.598267600e+01  3.133946060e+01  8.232130000e-01  2.696760000e-01  2.246060000e-02  8.665502103e-01  1.723510000e-01
 2.939738700e+01  1.381592100e+01  3.188815672e+01  6.873870000e-01  2.379210000e-01  8.156720000e-03  7.274433463e-01  1.625330000e-01
 2.967208300e+01  1.160166400e+01  3.235422781e+01  5.540830000e-01  2.046640000e-01 -6.772190000e-03  5.907124396e-01  1.558000000e-01
 2.988146000e+01  9.345460000e+00  3.273952030e+01  4.254600000e-01  1.693600000e-01 -1.947970000e-02  4.583431901e-01  1.528580000e-01
 3.002300900e+01  7.053026000e+00  3.304628580e+01  3.040090000e-01  1.311260000e-01 -2.671420000e-02  3.321583183e-01  1.539830000e-01
 3.008662200e+01  4.726560300e+00  3.328898680e+01  1.926220000e-01  8.866030000e-02 -2.501320000e-02  2.135170809e-01  1.601940000e-01
 3.004841500e+01  2.366305900e+00  3.350008813e+01  9.941500000e-02  3.950590000e-02 -5.911870000e-03  1.071401352e-01  1.570230000e-01
 2.763281000e+01  2.632739300e+01  2.585235670e+01  1.481810000e+00  4.153930000e-01 -2.664330000e-02  1.539162787e+00  2.330720000e-01
 2.806861000e+01  2.526269200e+01  2.636886550e+01  1.408610000e+00  4.006920000e-01 -1.513450000e-02  1.464569993e+00  2.237990000e-01
 2.864429000e+01  2.373519600e+01  2.705183461e+01  1.304290000e+00  3.791960000e-01 -4.165390000e-03  1.358300173e+00  2.112810000e-01
 2.924349000e+01  2.195758900e+01  2.776835237e+01  1.184490000e+00  3.535890000e-01  2.352370000e-03  1.236142093e+00  1.978860000e-01
 2.981439000e+01  2.002921500e+01  2.845927321e+01  1.056390000e+00  3.252150000e-01  3.273210000e-03  1.105321375e+00  1.844590000e-01
 3.033417200e+01  1.799916500e+01  2.909599868e+01  9.241720000e-01  2.951650000e-01 -1.001320000e-03  9.701635251e-01  1.718460000e-01
 3.078962200e+01  1.589600100e+01  2.966682009e+01  7.906220000e-01  2.640010000e-01 -9.179910000e-03  8.335849960e-01  1.607940000e-01
 3.117795300e+01  1.373593300e+01  3.016653010e+01  6.579530000e-01  2.319330000e-01 -1.946990000e-02  6.979069735e-01  1.520290000e-01
 3.149424000e+01  1.152879300e+01  3.059229230e+01  5.282400000e-01  1.987930000e-01 -2.970770000e-02  5.651890851e-01  1.462610000e-01
 3.173972000e+01  9.283621000e+00  3.094461650e+01  4.037200000e-01  1.640210000e-01 -3.738350000e-02  4.373674118e-01  1.440910000e-01
 3.191094100e+01  7.004497000e+00  3.122637820e+01  2.869410000e-01  1.266970000e-01 -3.962180000e-02  3.161600138e-01  1.457310000e-01
 3.200082800e+01  4.693608800e+00  3.145061940e+01  1.808280000e-01  8.550880000e-02 -3.338060000e-02  2.027924676e-01  1.521420000e-01
 3.199055050e+01  2.350653100e+00  3.164699490e+01  9.355050000e-02  3.805310000e-02 -1.100510000e-02  1.015915680e-01  1.491500000e-01
 5.603300000e+00  4.457227000e+01  8.098800000e-01  2.891400000e+00 -2.647300000e-01 -1.893920000e+00  3.466584616e+00  5.088250000e-01
 5.763760000e+00  4.415290100e+01  3.533540000e+00  3.064760000e+00 -4.400990000e-01 -1.865260000e+00  3.614641871e+00  5.264460000e-01
 5.905570000e+00  4.357338600e+01  6.254710000e+00  3.226570000e+00 -6.146140000e-01 -1.820890000e+00  3.755548525e+00  5.395260000e-01
 6.022220000e+00  4.284300500e+01  8.967720000e+00  3.370020000e+00 -7.799950000e-01 -1.757280000e+00  3.879878864e+00  5.497230000e-01
 6.106460000e+00  4.197125000e+01  1.166463000e+01  3.487560000e+00 -9.277500000e-01 -1.671370000e+00  3.977093473e+00  5.580360000e-01
 6.150900000e+00  4.096919000e+01  1.433814000e+01  3.571700000e+00 -1.049810000e+00 -1.560860000e+00  4.036759327e+00  5.653730000e-01
 6.148790000e+00  3.984665000e+01  1.698009000e+01  3.615690000e+00 -1.139350000e+00 -1.424910000e+00  4.049901370e+00  5.724900000e-01
 6.095350000e+00  3.861363000e+01  1.957856000e+01  3.614450000e+00 -1.191370000e+00 -1.264440000e+00  4.010289241e+00  5.799030000e-01
 5.988120000e+00  3.727666000e+01  2.212152000e+01  3.565220000e+00 -1.203340000e+00 -1.082480000e+00  3.915428936e+00  5.877600000e-01
 5.829560000e+00  3.584197000e+01  2.459517000e+01  3.467860000e+00 -1.175030000e+00 -8.838300000e-01  3.766683415e+00  5.957450000e-01
 5.631710000e+00  3.431398000e+01  2.698365200e+01  3.324710000e+00 -1.108020000e+00 -6.743480000e-01  3.568774318e+00  6.030210000e-01
 5.414780000e+00  3.269586000e+01  2.927087400e+01  3.140680000e+00 -1.006140000e+00 -4.611260000e-01  3.329988851e+00  6.088750000e-01
 8.151880000e+00  4.458502910e+01  9.942700000e-01  2.736180000e+00 -6.970900000e-03 -1.693030000e+00  3.217620265e+00  4.831670000e-01
 8.271030000e+00  4.421000700e+01  3.716550000e+00  2.879530000e+00 -1.419930000e-01 -1.650150000e+00  3.321874479e+00  5.047050000e-01
 8.364740000e+00  4.367479700e+01  6.435920000e+00  3.011940000e+00 -2.782030000e-01 -1.593580000e+00  3.418870675e+00  5.215850000e-01
 8.428590000e+00  4.298560000e+01  9.144720000e+00  3.128190000e+00 -4.094000000e-01 -1.521280000e+00  3.502495378e+00  5.354320000e-01
 8.457350000e+00  4.215088300e+01  1.183468000e+01  3.222750000e+00 -5.291170000e-01 -1.431320000e+00  3.565776115e+00  5.470240000e-01
 8.445730000e+00  4.117984100e+01  1.449759000e+01  3.290030000e+00 -6.311590000e-01 -1.322410000e+00  3.601586774e+00  5.569350000e-01
 8.388930000e+00  4.008084200e+01  1.712183000e+01  3.325030000e+00 -7.101580000e-01 -1.194170000e+00  3.603635786e+00  5.656370000e-01
 8.283600000e+00  3.886189400e+01  1.969746000e+01  3.323800000e+00 -7.621060000e-01 -1.047540000e+00  3.567322812e+00  5.734450000e-01
 8.128010000e+00  3.753036000e+01  2.221212300e+01  3.283910000e+00 -7.846400000e-01 -8.848770000e-01  3.490377075e+00  5.804440000e-01
 7.927750000e+00  3.609436800e+01  2.465227000e+01  3.204350000e+00 -7.766320000e-01 -7.097300000e-01  3.372644787e+00  5.863620000e-01
 7.703100000e+00  3.455973000e+01  2.700192200e+01  3.085300000e+00 -7.372700000e-01 -5.260780000e-01  3.215493929e+00  5.904690000e-01
 7.485880000e+00  3.293253900e+01  2.924578300e+01  2.929080000e+00 -6.674610000e-01 -3.392170000e-01  3.023256854e+00  5.926840000e-01
 1.069822000e+01  4.438190900e+01  1.150320000e+00  2.596720000e+00  1.979090000e-01 -1.515580000e+00  3.013155400e+00  4.512350000e-01
 1.078385000e+01  4.404666780e+01  3.862020000e+00  2.716050000e+00  9.666780000e-02 -1.462580000e+00  3.086326704e+00  4.738540000e-01
 1.083704000e+01  4.355058696e+01  6.570480000e+00  2.825040000e+00 -7.413040000e-03 -1.397720000e+00  3.151908494e+00  4.925540000e-01
 1.085500000e+01  4.290130300e+01  9.267230000e+00  2.919800000e+00 -1.096970000e-01 -1.319770000e+00  3.206097055e+00  5.084920000e-01
 1.083407000e+01  4.210458600e+01  1.194327000e+01  2.996170000e+00 -2.054140000e-01 -1.227730000e+00  3.244464599e+00  5.221580000e-01
 1.077062000e+01  4.116612000e+01  1.458796000e+01  3.050020000e+00 -2.898800000e-01 -1.121040000e+00  3.262419822e+00  5.338340000e-01
 1.066137000e+01  4.009503200e+01  1.719120200e+01  3.077570000e+00 -3.589680000e-01 -9.997980000e-01  3.255747406e+00  5.437280000e-01
 1.050376000e+01  3.889955500e+01  1.974201300e+01  3.075760000e+00 -4.094450000e-01 -8.649870000e-01  3.221202772e+00  5.519690000e-01
 1.029744000e+01  3.758485800e+01  2.222740200e+01  3.042440000e+00 -4.391420000e-01 -7.185980000e-01  3.156844934e+00  5.585350000e-01
 1.005181000e+01  3.615979900e+01  2.463373200e+01  2.976010000e+00 -4.462010000e-01 -5.632680000e-01  3.061535839e+00  5.631130000e-01
 9.796410000e+00  3.463184800e+01  2.694634500e+01  2.875210000e+00 -4.281520000e-01 -4.016550000e-01  2.934531209e+00  5.649820000e-01
 9.574140000e+00  3.300510100e+01  2.914718700e+01  2.740540000e+00 -3.838990000e-01 -2.378130000e-01  2.777497607e+00  5.644770000e-01
 1.322874000e+01  4.396865500e+01  1.279210000e+00  2.469740000e+00  3.536550000e-01 -1.359390000e+00  2.841237177e+00  4.161620000e-01
 1.328671000e+01  4.366609600e+01  3.970930000e+00  2.569710000e+00  2.800960000e-01 -1.299870000e+00  2.893358822e+00  4.383040000e-01
 1.330598000e+01  4.320763200e+01  6.659160000e+00  2.659980000e+00  2.026320000e-01 -1.229940000e+00  2.937567996e+00  4.573590000e-01
 1.328363000e+01  4.259656800e+01  9.334910000e+00  2.737630000e+00  1.245680000e-01 -1.149090000e+00  2.971622963e+00  4.741090000e-01
 1.321854000e+01  4.183732790e+01  1.198810000e+01  2.799540000e+00  4.932790000e-02 -1.056900000e+00  2.992807221e+00  4.887950000e-01
 1.310663000e+01  4.093734650e+01  1.460962600e+01  2.842630000e+00 -1.965350000e-02 -9.533740000e-01  2.998308450e+00  5.014860000e-01
 1.294705000e+01  3.990074210e+01  1.718604700e+01  2.864050000e+00 -7.925790000e-02 -8.389530000e-01  2.985449104e+00  5.121970000e-01
 1.273790000e+01  3.873706700e+01  1.970727700e+01  2.861400000e+00 -1.269330000e-01 -7.147230000e-01  2.952041821e+00  5.209000000e-01
 1.247987000e+01  3.745129600e+01  2.216158100e+01  2.832770000e+00 -1.607040000e-01 -5.824190000e-01  2.896484687e+00  5.274480000e-01
 1.218665000e+01  3.605070600e+01  2.453393900e+01  2.776250000e+00 -1.782940000e-01 -4.440610000e-01  2.817187070e+00  5.314180000e-01
 1.189727000e+01  3.454177100e+01  2.680653200e+01  2.689570000e+00 -1.762290000e-01 -3.014680000e-01  2.712144244e+00  5.320100000e-01
 1.166573000e+01  3.292782600e+01  2.896313700e+01  2.571930000e+00 -1.521740000e-01 -1.578630000e-01  2.581259688e+00  5.297660000e-01
 1.572982000e+01  4.335116400e+01  1.383010000e+00  2.351820000e+00  4.651640000e-01 -1.222190000e+00  2.690944677e+00  3.800770000e-01
 1.576616000e+01  4.307774900e+01  4.045450000e+00  2.436160000e+00  4.137490000e-01 -1.159150000e+00  2.729412483e+00  4.007240000e-01
 1.575547000e+01  4.265284100e+01  6.704090000e+00  2.511470000e+00  3.578410000e-01 -1.087010000e+00  2.759913492e+00  4.190630000e-01
 1.569855000e+01  4.207971300e+01  9.350330000e+00  2.575550000e+00  2.997130000e-01 -1.005670000e+00  2.781125282e+00  4.355740000e-01
 1.559204000e+01  4.136071500e+01  1.197282600e+01  2.626040000e+00  2.417150000e-01 -9.151740000e-01  2.791425384e+00  4.503480000e-01
 1.543660000e+01  4.050129000e+01  1.456213600e+01  2.660600000e+00  1.862900000e-01 -8.158640000e-01  2.789109247e+00  4.633210000e-01
 1.522909000e+01  3.950672600e+01  1.710556300e+01  2.677090000e+00  1.357260000e-01 -7.084370000e-01  2.772564769e+00  4.743870000e-01
 1.496961000e+01  3.838400190e+01  1.959296500e+01  2.673610000e+00  9.200190000e-02 -5.940350000e-01  2.740352598e+00  4.834100000e-01
 1.466049000e+01  3.713885170e+01  2.201278700e+01  2.648490000e+00  5.685170000e-02 -4.742130000e-01  2.691209647e+00  4.901340000e-01
 1.431862000e+01  3.577669130e+01  2.434840900e+01  2.599620000e+00  3.269130000e-02 -3.505910000e-01  2.623357946e+00  4.940080000e-01
 1.399306000e+01  3.429941260e+01  2.658248600e+01  2.524060000e+00  2.341260000e-02 -2.245140000e-01  2.534133692e+00  4.941160000e-01
 1.374906000e+01  3.270900210e+01  2.869126370e+01  2.420060000e+00  3.200210000e-02 -9.873630000e-02  2.422284747e+00  4.910140000e-01
 1.818873000e+01  4.253928100e+01  1.463800000e+00  2.239730000e+00  5.382810000e-01 -1.101700000e+00  2.553405529e+00  3.445620000e-01
 1.820535000e+01  4.229012900e+01  4.088050000e+00  2.311350000e+00  5.041290000e-01 -1.037650000e+00  2.583254226e+00  3.631550000e-01
 1.816965000e+01  4.189731900e+01  6.708037000e+00  2.374650000e+00  4.653190000e-01 -9.656630000e-01  2.605377021e+00  3.800950000e-01
 1.808093000e+01  4.136132000e+01  9.315082000e+00  2.427930000e+00  4.233200000e-01 -8.859180000e-01  2.618949142e+00  3.956610000e-01
 1.793939000e+01  4.068466900e+01  1.189929000e+01  2.469390000e+00  3.796690000e-01 -7.987100000e-01  2.622970298e+00  4.098520000e-01
 1.774225000e+01  3.987002900e+01  1.444837800e+01  2.497250000e+00  3.360290000e-01 -7.046220000e-01  2.616422216e+00  4.225410000e-01
 1.749088000e+01  3.892402200e+01  1.695352000e+01  2.509880000e+00  2.940220000e-01 -6.044800000e-01  2.598334586e+00  4.335580000e-01
 1.718277000e+01  3.785113500e+01  1.940256500e+01  2.505770000e+00  2.551350000e-01 -4.994350000e-01  2.567764101e+00  4.427020000e-01
 1.682347000e+01  3.665783600e+01  2.178311000e+01  2.483470000e+00  2.208360000e-01 -3.908900000e-01  2.523724781e+00  4.496350000e-01
 1.643375000e+01  3.534642900e+01  2.408079000e+01  2.440750000e+00  1.934290000e-01 -2.802100000e-01  2.464384910e+00  4.536920000e-01
 1.607222000e+01  3.391475900e+01  2.627244500e+01  2.374220000e+00  1.767590000e-01 -1.685550000e-01  2.386749912e+00  4.538350000e-01
 1.581133000e+01  3.235999100e+01  2.833153260e+01  2.281330000e+00  1.739910000e-01 -5.846740000e-02  2.288702225e+00  4.505140000e-01
 2.059180000e+01  4.154117000e+01  1.523828000e+00  2.130800000e+00  5.791700000e-01 -9.957720000e-01  2.422252754e+00  3.107290000e-01
 2.059197000e+01  4.131511800e+01  4.101480000e+00  2.191970000e+00  5.581180000e-01 -9.327200000e-01  2.446670141e+00  3.270290000e-01
 2.053352000e+01  4.095155700e+01  6.674405000e+00  2.245520000e+00  5.325570000e-01 -8.627950000e-01  2.463816600e+00  3.422040000e-01
 2.041716000e+01  4.045337100e+01  9.233681000e+00  2.290160000e+00  5.033710000e-01 -7.863190000e-01  2.473158458e+00  3.563950000e-01
 2.024249000e+01  3.982049000e+01  1.177126400e+01  2.324490000e+00  4.714900000e-01 -7.037360000e-01  2.474025250e+00  3.695660000e-01
 2.000814000e+01  3.905598900e+01  1.427427000e+01  2.347140000e+00  4.379890000e-01 -6.157300000e-01  2.465770463e+00  3.815660000e-01
 1.971486000e+01  3.816496300e+01  1.673382600e+01  2.356860000e+00  4.039630000e-01 -5.231740000e-01  2.447792107e+00  3.922100000e-01
 1.936245000e+01  3.715149000e+01  1.913883100e+01  2.352450000e+00  3.704900000e-01 -4.271690000e-01  2.419453905e+00  4.012650000e-01
 1.895564000e+01  3.601974700e+01  2.147802800e+01  2.332640000e+00  3.387470000e-01 -3.289720000e-01  2.379954091e+00  4.083410000e-01
 1.852014000e+01  3.477075300e+01  2.373320200e+01  2.295140000e+00  3.107530000e-01 -2.297980000e-01  2.327454010e+00  4.126830000e-01
 1.812219000e+01  3.339695600e+01  2.587919700e+01  2.236190000e+00  2.899560000e-01 -1.308030000e-01  2.258700871e+00  4.131540000e-01
 1.784461000e+01  3.188934900e+01  2.788648480e+01  2.152610000e+00  2.793490000e-01 -3.451520000e-02  2.170934586e+00  4.100370000e-01
 2.292693000e+01  4.036795200e+01  1.565222000e+00  2.022930000e+00  5.939520000e-01 -9.023780000e-01  2.293318735e+00  2.792880000e-01
 2.291239000e+01  4.016155400e+01  4.088408000e+00  2.075390000e+00  5.825540000e-01 -8.418920000e-01  2.314172629e+00  2.932980000e-01
 2.283396000e+01  3.982902100e+01  6.606402000e+00  2.120960000e+00  5.670210000e-01 -7.754980000e-01  2.328385983e+00  3.065820000e-01
 2.269264000e+01  3.936782100e+01  9.111113000e+00  2.158640000e+00  5.478210000e-01 -7.035870000e-01  2.335566134e+00  3.192030000e-01
 2.248833000e+01  3.878146000e+01  1.159334800e+01  2.187330000e+00  5.254600000e-01 -6.266520000e-01  2.335211654e+00  3.311170000e-01
 2.221999000e+01  3.807157700e+01  1.404360400e+01  2.205990000e+00  5.005770000e-01 -5.453960000e-01  2.326891921e+00  3.421810000e-01
 2.188864000e+01  3.724186700e+01  1.645134000e+01  2.213640000e+00  4.738670000e-01 -4.606600000e-01  2.310186057e+00  3.522210000e-01
 2.149533000e+01  3.629506500e+01  1.880755400e+01  2.209330000e+00  4.460650000e-01 -3.734460000e-01  2.284638910e+00  3.610060000e-01
 2.104493000e+01  3.523606600e+01  2.109913200e+01  2.191930000e+00  4.180660000e-01 -2.848680000e-01  2.249552418e+00  3.681170000e-01
 2.056711000e+01  3.406047500e+01  2.330996600e+01  2.159110000e+00  3.914750000e-01 -1.960340000e-01  2.203051973e+00  3.727440000e-01
 2.013380000e+01  3.275512600e+01  2.540877300e+01  2.106800000e+00  3.691260000e-01 -1.082270000e-01  2.141628662e+00  3.736760000e-01
 1.983928000e+01  3.130558900e+01  2.735893990e+01  2.031280000e+00  3.535890000e-01 -2.406010000e-02  2.061965690e+00  3.710040000e-01
 2.518360000e+01  3.902938400e+01  1.590060000e+00  1.914600000e+00  5.883840000e-01 -8.196400000e-01  2.164185441e+00  2.506120000e-01
 2.515471000e+01  3.884387200e+01  4.051506000e+00  1.959710000e+00  5.838720000e-01 -7.628940000e-01  2.182516220e+00  2.624890000e-01
 2.505867000e+01  3.853973500e+01  6.507185000e+00  1.998670000e+00  5.757350000e-01 -7.011150000e-01  2.194929339e+00  2.739310000e-01
 2.489370000e+01  3.811916900e+01  8.949694000e+00  2.030700000e+00  5.641690000e-01 -6.347060000e-01  2.201109006e+00  2.849600000e-01
 2.466296000e+01  3.758239100e+01  1.137084800e+01  2.054960000e+00  5.493910000e-01 -5.641520000e-01  2.200672295e+00  2.955380000e-01
 2.436462000e+01  3.693073700e+01  1.376089500e+01  2.070620000e+00  5.317370000e-01 -4.901050000e-01  2.193265678e+00  3.055500000e-01
 2.399993000e+01  3.616760300e+01  1.611067500e+01  2.076930000e+00  5.116030000e-01 -4.133250000e-01  2.178580595e+00  3.148440000e-01
 2.356913000e+01  3.529545800e+01  1.841231500e+01  2.073130000e+00  4.894580000e-01 -3.346850000e-01  2.156258607e+00  3.232160000e-01
 2.308023000e+01  3.431690700e+01  2.065387800e+01  2.058230000e+00  4.659070000e-01 -2.551220000e-01  2.125668671e+00  3.302560000e-01
 2.256283000e+01  3.322511200e+01  2.281729900e+01  2.029830000e+00  4.421120000e-01 -1.757010000e-01  2.084836610e+00  3.351290000e-01
 2.209958000e+01  3.199912500e+01  2.486416830e+01  1.983580000e+00  4.201250000e-01 -9.783170000e-02  2.029942283e+00  3.365950000e-01
 2.178729000e+01  3.061695900e+01  2.675469630e+01  1.915290000e+00  4.019590000e-01 -2.430370000e-02  1.957165678e+00  3.345210000e-01
 2.735274000e+01  3.753764900e+01  1.600755000e+00  1.804740000e+00  5.676490000e-01 -7.458450000e-01  2.033616635e+00  2.248120000e-01
 2.730961000e+01  3.737186300e+01  3.995063000e+00  1.843610000e+00  5.678630000e-01 -6.936370000e-01  2.049999636e+00  2.348150000e-01
 2.719509000e+01  3.709902300e+01  6.383528000e+00  1.877090000e+00  5.650230000e-01 -6.371720000e-01  2.061238952e+00  2.445870000e-01
 2.700955000e+01  3.671915900e+01  8.758972000e+00  1.904550000e+00  5.591590000e-01 -5.768280000e-01  2.067051047e+00  2.541310000e-01
 2.675434000e+01  3.623431100e+01  1.111395400e+01  1.925340000e+00  5.503110000e-01 -5.130460000e-01  2.067121794e+00  2.634240000e-01
 2.642884000e+01  3.564361100e+01  1.343960300e+01  1.938840000e+00  5.386110000e-01 -4.463970000e-01  2.061182339e+00  2.723760000e-01
 2.603443000e+01  3.495124700e+01  1.572847300e+01  1.944430000e+00  5.242470000e-01 -3.775270000e-01  2.048943527e+00  2.808680000e-01
 2.557153000e+01  3.415947600e+01  1.797284000e+01  1.941530000e+00  5.074760000e-01 -3.071600000e-01  2.030127557e+00  2.887290000e-01
 2.504721000e+01  3.326767600e+01  2.016192800e+01  1.929210000e+00  4.886760000e-01 -2.360720000e-01  2.004092175e+00  2.956050000e-01
 2.449608000e+01  3.226647200e+01  2.227379100e+01  1.905080000e+00  4.684720000e-01 -1.652090000e-01  1.968778767e+00  3.007070000e-01
 2.400350000e+01  3.112716700e+01  2.426876330e+01  1.864500000e+00  4.481670000e-01 -9.623670000e-02  1.920019639e+00  3.028040000e-01
 2.366808000e+01  2.982301000e+01  2.610012910e+01  1.803080000e+00  4.290100000e-01 -3.187090000e-02  1.853688976e+00  3.015150000e-01
 2.942376000e+01  3.590225500e+01  1.605363000e+00  1.692760000e+00  5.362550000e-01 -6.793370000e-01  1.901185052e+00  2.018280000e-01
 2.936541000e+01  3.575555900e+01  3.935610000e+00  1.726410000e+00  5.395590000e-01 -6.319900000e-01  1.915992370e+00  2.102680000e-01
 2.923337000e+01  3.551337300e+01  6.260879000e+00  1.755370000e+00  5.403730000e-01 -5.810210000e-01  1.926372814e+00  2.186180000e-01
 2.902817000e+01  3.517463300e+01  8.574024000e+00  1.779170000e+00  5.386330000e-01 -5.267760000e-01  1.932113959e+00  2.268780000e-01
 2.874929000e+01  3.474027500e+01  1.086735500e+01  1.797290000e+00  5.342750000e-01 -4.696450000e-01  1.932942717e+00  2.350340000e-01
 2.839724000e+01  3.421130700e+01  1.313489200e+01  1.809240000e+00  5.273070000e-01 -4.101080000e-01  1.928624023e+00  2.430190000e-01
 2.797354000e+01  3.358977700e+01  1.536729900e+01  1.814540000e+00  5.177770000e-01 -3.487010000e-01  1.918916575e+00  2.507420000e-01
 2.747771000e+01  3.287680700e+01  1.755799300e+01  1.812710000e+00  5.058070000e-01 -2.860070000e-01  1.903564622e+00  2.580640000e-01
 2.691892000e+01  3.207255900e+01  1.969834500e+01  1.802920000e+00  4.915590000e-01 -2.226550000e-01  1.881947403e+00  2.646990000e-01
 2.633367000e+01  3.116125000e+01  2.176349100e+01  1.782670000e+00  4.752500000e-01 -1.595090000e-01  1.851814789e+00  2.700310000e-01
 2.579974000e+01  3.011316700e+01  2.371383770e+01  1.747740000e+00  4.571670000e-01 -9.816230000e-02  1.809207730e+00  2.729840000e-01
 2.541672000e+01  2.891862000e+01  2.547569160e+01  1.694720000e+00  4.386200000e-01 -4.230840000e-02  1.751072067e+00  2.728200000e-01
 3.138943000e+01  3.413303000e+01  1.622035000e+00  1.578430000e+00  4.980300000e-01 -6.184650000e-01  1.766910892e+00  1.815160000e-01
 3.131486000e+01  3.400525400e+01  3.907454000e+00  1.607860000e+00  5.032540000e-01 -5.757460000e-01  1.780438661e+00  1.887280000e-01
 3.116323000e+01  3.379048600e+01  6.189519000e+00  1.633230000e+00  5.064860000e-01 -5.298810000e-01  1.790179370e+00  1.959460000e-01
 3.093414000e+01  3.348860900e+01  8.460413000e+00  1.654140000e+00  5.076090000e-01 -4.811870000e-01  1.795936236e+00  2.031790000e-01
 3.062717000e+01  3.309950800e+01  1.071299300e+01  1.670170000e+00  5.065080000e-01 -4.300070000e-01  1.797477177e+00  2.104210000e-01
 3.024496000e+01  3.262511400e+01  1.294024900e+01  1.680960000e+00  5.031140000e-01 -3.767510000e-01  1.794628523e+00  2.176220000e-01
 2.978611000e+01  3.206539500e+01  1.513414000e+01  1.686110000e+00  4.973950000e-01 -3.218600000e-01  1.787166074e+00  2.247100000e-01
 2.925224000e+01  3.142237000e+01  1.729018300e+01  1.685240000e+00  4.893700000e-01 -2.658170000e-01  1.774873385e+00  2.315720000e-01
 2.865155000e+01  3.069507100e+01  1.939586100e+01  1.677550000e+00  4.790710000e-01 -2.091390000e-01  1.757106185e+00  2.379830000e-01
 2.801695000e+01  2.986836100e+01  2.143236400e+01  1.660950000e+00  4.663610000e-01 -1.526360000e-01  1.731919523e+00  2.435280000e-01
 2.741189000e+01  2.893545700e+01  2.333550340e+01  1.632890000e+00  4.514570000e-01 -9.849660000e-02  1.697010535e+00  2.475910000e-01
 2.692890000e+01  2.792610300e+01  2.499621730e+01  1.592900000e+00  4.351030000e-01 -5.078270000e-02  1.652036293e+00  2.492840000e-01
 3.324253000e+01  3.223710600e+01  1.668243000e+00  1.461530000e+00  4.561060000e-01 -5.618570000e-01  1.630885009e+00  1.636170000e-01
 3.314957000e+01  3.212546200e+01  3.940867000e+00  1.487570000e+00  4.624620000e-01 -5.232330000e-01  1.643322360e+00  1.698920000e-01
 3.297501000e+01  3.193423600e+01  6.210883000e+00  1.510010000e+00  4.672360000e-01 -4.818170000e-01  1.652448880e+00  1.762480000e-01
 3.271652000e+01  3.166228900e+01  8.470204000e+00  1.528520000e+00  4.702890000e-01 -4.378960000e-01  1.658100733e+00  1.827030000e-01
 3.237580000e+01  3.131047800e+01  1.071122400e+01  1.542800000e+00  4.714780000e-01 -3.917760000e-01  1.660124025e+00  1.892580000e-01
 3.195353000e+01  3.087969100e+01  1.292719100e+01  1.552530000e+00  4.706910000e-01 -3.438090000e-01  1.658343766e+00  1.958770000e-01
 3.144941000e+01  3.036984100e+01  1.511062300e+01  1.557410000e+00  4.678410000e-01 -2.943770000e-01  1.652591579e+00  2.025040000e-01
 3.086612000e+01  2.978488700e+01  1.725512100e+01  1.557120000e+00  4.628870000e-01 -2.438790000e-01  1.642669789e+00  2.090440000e-01
 3.020905000e+01  2.912076300e+01  1.935221300e+01  1.551050000e+00  4.557630000e-01 -1.927870000e-01  1.628079495e+00  2.153470000e-01
 2.950122000e+01  2.837738200e+01  2.137292000e+01  1.538220000e+00  4.463820000e-01 -1.420800000e-01  1.607969025e+00  2.211950000e-01
 2.878233000e+01  2.759026800e+01  2.323550830e+01  1.519330000e+00  4.352680000e-01 -9.449170000e-02  1.583272106e+00  2.264090000e-01
 2.811936000e+01  2.685709400e+01  2.479697000e+01  1.498360000e+00  4.240940000e-01 -5.403000000e-02  1.558158417e+00  2.306570000e-01
 3.497581000e+01  3.022383600e+01  1.744785000e+00  1.341810000e+00  4.128360000e-01 -5.087150000e-01  1.493210832e+00  1.477980000e-01
 3.658499000e+01  2.809996100e+01  1.840533000e+00  1.218990000e+00  3.699610000e-01 -4.585670000e-01  1.353917078e+00  1.337710000e-01
 3.806412000e+01  2.587573300e+01  1.943943000e+00  1.093120000e+00  3.287330000e-01 -4.109570000e-01  1.213203353e+00  1.212530000e-01
 3.940657000e+01  2.355800500e+01  2.047441000e+00  9.645700000e-01  2.900050000e-01 -3.654590000e-01  1.071474902e+00  1.099850000e-01
 4.060806500e+01  2.115725800e+01  2.147029000e+00  8.340650000e-01  2.542580000e-01 -3.216710000e-01  9.293996918e-01  9.976190000e-02
 4.166477100e+01  1.868161300e+01  2.240757000e+00  7.027710000e-01  2.216130000e-01 -2.792430000e-01  7.880203381e-01  9.046410000e-02
 4.257339100e+01  1.613979700e+01  2.327924000e+00  5.723910000e-01  1.917970000e-01 -2.378760000e-01  6.488470833e-01  8.216750000e-02
 4.333124200e+01  1.354210300e+01  2.408253000e+00  4.452420000e-01  1.641030000e-01 -1.973470000e-01  5.139222427e-01  7.532600000e-02
 4.393952100e+01  1.089615800e+01  2.481681000e+00  3.245210000e-01  1.371580000e-01 -1.574190000e-01  3.858846174e-01  7.109260000e-02
 4.439812700e+01  8.211131000e+00  2.548184000e+00  2.141270000e-01  1.090310000e-01 -1.180160000e-01  2.677048885e-01  7.156610000e-02
 4.471221200e+01  5.492961300e+00  2.608247900e+00  1.202120000e-01  7.596130000e-02 -7.885210000e-02  1.625998085e-01  7.895000000e-02
 4.489343620e+01  2.748638200e+00  2.664350000e+00  5.643620000e-02  3.533820000e-02 -3.885000000e-02  7.709186435e-02  8.065080000e-02
 3.486406000e+01  3.012576100e+01  4.035963000e+00  1.365060000e+00  4.197610000e-01 -4.737370000e-01  1.504664363e+00  1.533330000e-01
 3.645476000e+01  2.801403100e+01  4.171431000e+00  1.239760000e+00  3.770310000e-01 -4.270690000e-01  1.364384536e+00  1.387040000e-01
 3.791455000e+01  2.579859000e+01  4.325113000e+00  1.111550000e+00  3.355900000e-01 -3.829870000e-01  1.222637760e+00  1.257020000e-01
 3.924071100e+01  2.348837200e+01  4.481634000e+00  9.807110000e-01  2.963720000e-01 -3.411660000e-01  1.079826221e+00  1.140490000e-01
 4.042798400e+01  2.109392500e+01  4.632186000e+00  8.479840000e-01  2.599250000e-01 -3.012140000e-01  9.366791039e-01  1.035510000e-01
 4.147156000e+01  1.862444000e+01  4.772778000e+00  7.145600000e-01  2.264400000e-01 -2.627220000e-01  7.942883082e-01  9.411230000e-02
 4.236920200e+01  1.608770300e+01  4.901207000e+00  5.822020000e-01  1.957030000e-01 -2.252930000e-01  6.542291409e-01  8.583970000e-02
 4.311725100e+01  1.349606100e+01  5.016759000e+00  4.532510000e-01  1.670610000e-01 -1.885410000e-01  5.185494725e-01  7.920690000e-02
 4.371697900e+01  1.085617200e+01  5.119415000e+00  3.309790000e-01  1.391720000e-01 -1.520850000e-01  3.899304954e-01  7.530130000e-02
 4.416820800e+01  8.179004000e+00  5.209158000e+00  2.192080000e-01  1.102040000e-01 -1.155420000e-01  2.711955432e-01  7.602090000e-02
 4.447597000e+01  5.470453300e+00  5.287114300e+00  1.239700000e-01  7.655330000e-02 -7.838570000e-02  1.654487431e-01  8.356090000e-02
 4.465162970e+01  2.736908900e+00  5.358115600e+00  5.862970000e-02  3.530890000e-02 -3.878440000e-02  7.866631951e-02  8.507350000e-02
 3.466306000e+01  2.995343900e+01  6.323858000e+00  1.385060000e+00  4.254390000e-01 -4.362420000e-01  1.513174355e+00  1.590020000e-01
 3.622557000e+01  2.785614800e+01  6.497710000e+00  1.257570000e+00  3.831480000e-01 -3.932900000e-01  1.372210523e+00  1.438070000e-01
 3.765829000e+01  2.565475100e+01  6.700145000e+00  1.127290000e+00  3.417510000e-01 -3.529550000e-01  1.229696598e+00  1.303480000e-01
 3.895847300e+01  2.335726400e+01  6.908273000e+00  9.944730000e-01  3.022640000e-01 -3.150270000e-01  1.086085671e+00  1.183370000e-01
 4.012285800e+01  2.097429500e+01  7.108872000e+00  8.598580000e-01  2.652950000e-01 -2.791280000e-01  9.421516107e-01  1.075910000e-01
 4.114568000e+01  1.851610100e+01  7.295010000e+00  7.246800000e-01  2.311010000e-01 -2.447900000e-01  7.990562675e-01  9.804990000e-02
 4.202373100e+01  1.599152700e+01  7.463597000e+00  5.907310000e-01  1.995270000e-01 -2.115030000e-01  6.584129837e-01  8.984950000e-02
 4.275640400e+01  1.341196500e+01  7.613265000e+00  4.604040000e-01  1.699650000e-01 -1.787350000e-01  5.223084765e-01  8.346950000e-02
 4.334192500e+01  1.078615300e+01  7.743593000e+00  3.369250000e-01  1.411530000e-01 -1.459070000e-01  3.933592222e-01  7.991700000e-02
 4.378215700e+01  8.124497000e+00  7.854902000e+00  2.241570000e-01  1.112970000e-01 -1.123980000e-01  2.743477597e-01  8.087640000e-02
 4.408080600e+01  5.432854300e+00  7.949304500e+00  1.278060000e-01  7.695430000e-02 -7.739550000e-02  1.680666574e-01  8.837000000e-02
 4.425000160e+01  2.717619900e+00  8.033621400e+00  6.100160000e-02  3.531990000e-02 -3.837860000e-02  8.025962544e-02  8.955830000e-02
 3.437156000e+01  2.970473500e+01  8.600418000e+00  1.401560000e+00  4.297350000e-01 -3.964820000e-01  1.518631153e+00  1.648320000e-01
 3.589723000e+01  2.762818600e+01  8.811555000e+00  1.272230000e+00  3.881860000e-01 -3.574450000e-01  1.377325115e+00  1.491130000e-01
 3.729423000e+01  2.544410600e+01  9.061355000e+00  1.140230000e+00  3.471060000e-01 -3.210450000e-01  1.234373088e+00  1.352290000e-01
 3.855980000e+01  2.316459200e+01  9.319703000e+00  1.005800000e+00  3.075920000e-01 -2.871970000e-01  1.090288308e+00  1.228810000e-01
 3.969068500e+01  2.079830600e+01  9.568758000e+00  8.696850000e-01  2.703060000e-01 -2.555420000e-01  9.458958963e-01  1.119060000e-01
 4.068415700e+01  1.835856100e+01  9.799451000e+00  7.331570000e-01  2.355610000e-01 -2.255490000e-01  8.024216615e-01  1.022770000e-01
 4.153704600e+01  1.585225600e+01  1.000640700e+01  5.980460000e-01  2.032560000e-01 -1.965930000e-01  6.615291583e-01  9.416350000e-02
 4.224774600e+01  1.329284200e+01  1.018801400e+01  4.667460000e-01  1.728420000e-01 -1.679860000e-01  5.253051320e-01  8.804830000e-02
 4.281445900e+01  1.068812000e+01  1.034505400e+01  3.424590000e-01  1.431200000e-01 -1.389460000e-01  3.963174132e-01  8.485920000e-02
 4.323998400e+01  8.048558000e+00  1.047637800e+01  2.289840000e-01  1.123580000e-01 -1.086220000e-01  2.772304660e-01  8.604450000e-02
 4.352778700e+01  5.381056100e+00  1.058508230e+01  1.317870000e-01  7.735610000e-02 -7.591770000e-02  1.706319922e-01  9.343670000e-02
 4.368751320e+01  2.691298600e+00  1.068139940e+01  6.351320000e-02  3.529860000e-02 -3.760060000e-02  8.181517498e-02  9.424780000e-02
 3.399032000e+01  2.938249600e+01  1.085827200e+01  1.414320000e+00  4.324960000e-01 -3.547280000e-01  1.520916108e+00  1.708330000e-01
 3.547157000e+01  2.732999700e+01  1.110522700e+01  1.283570000e+00  3.919970000e-01 -3.197730000e-01  1.379662410e+00  1.546380000e-01
 3.682225000e+01  2.516852100e+01  1.140053700e+01  1.150250000e+00  3.515210000e-01 -2.874630000e-01  1.236639419e+00  1.403620000e-01
 3.804361000e+01  2.291124200e+01  1.170715300e+01  1.014610000e+00  3.122420000e-01 -2.578470000e-01  1.092434709e+00  1.277020000e-01
 3.913342100e+01  2.056786300e+01  1.200341200e+01  8.774210000e-01  2.748630000e-01 -2.305880000e-01  9.479388724e-01  1.165160000e-01
 4.008998900e+01  1.815174900e+01  1.227590700e+01  7.399890000e-01  2.397490000e-01 -2.050930000e-01  8.044416957e-01  1.068110000e-01
 4.091015300e+01  1.567184700e+01  1.251938400e+01  6.041530000e-01  2.068470000e-01 -1.806160000e-01  6.636329319e-01  9.878860000e-02
 4.159230500e+01  1.313866500e+01  1.273269500e+01  4.723050000e-01  1.756650000e-01 -1.563050000e-01  5.275997141e-01  9.293580000e-02
 4.213658400e+01  1.056207300e+01  1.291381700e+01  3.475840000e-01  1.450730000e-01 -1.311830000e-01  3.988355449e-01  9.009580000e-02
 4.254470800e+01  7.952026000e+00  1.306284000e+01  2.337080000e-01  1.134260000e-01 -1.041600000e-01  2.798824617e-01  9.148700000e-02
 4.281785400e+01  5.315644400e+00  1.318512540e+01  1.358540000e-01  7.774440000e-02 -7.387460000e-02  1.730836722e-01  9.876630000e-02
 4.296716940e+01  2.658092400e+00  1.329155340e+01  6.616940000e-02  3.529240000e-02 -3.644660000e-02  8.338043923e-02  9.917490000e-02
 3.351907000e+01  2.898658900e+01  1.308971200e+01  1.423070000e+00  4.335890000e-01 -3.112880000e-01  1.519877582e+00  1.769810000e-01
 3.494737000e+01  2.696343600e+01  1.337045600e+01  1.291370000e+00  3.944360000e-01 -2.805440000e-01  1.379101581e+00  1.603700000e-01
 3.624419000e+01  2.482885600e+01  1.370955800e+01  1.157190000e+00  3.548560000e-01 -2.524420000e-01  1.236421627e+00  1.457440000e-01
 3.741180000e+01  2.259808000e+01  1.406283300e+01  1.020800000e+00  3.160800000e-01 -2.271670000e-01  1.092494418e+00  1.328070000e-01
 3.845200600e+01  2.028385200e+01  1.440258800e+01  8.830060000e-01  2.788520000e-01 -2.044120000e-01  9.482838708e-01  1.214320000e-01
 3.936314300e+01  1.789757100e+01  1.471448100e+01  7.451430000e-01  2.435710000e-01 -1.835190000e-01  8.051361039e-01  1.116660000e-01
 4.014404800e+01  1.544923100e+01  1.499338100e+01  6.090480000e-01  2.102310000e-01 -1.636190000e-01  6.647613984e-01  1.037390000e-01
 4.079308500e+01  1.294938800e+01  1.523529900e+01  4.770850000e-01  1.783880000e-01 -1.437010000e-01  5.292280729e-01  9.813820000e-02
 4.131030600e+01  1.040899200e+01  1.543841300e+01  3.523060000e-01  1.469920000e-01 -1.225870000e-01  4.009410658e-01  9.562420000e-02
 4.169631800e+01  7.835283000e+00  1.560503950e+01  2.383180000e-01  1.144830000e-01 -9.896050000e-02  2.823030410e-01  9.720370000e-02
 4.195499800e+01  5.236839200e+00  1.573778930e+01  1.399980000e-01  7.813920000e-02 -7.121070000e-02  1.754312925e-01  1.043710000e-01
 4.209092680e+01  2.618187900e+00  1.585313160e+01  6.892680000e-02  3.528790000e-02 -3.486840000e-02  8.492317094e-02  1.043550000e-01
 3.296057000e+01  2.851689500e+01  1.528750300e+01  1.427570000e+00  4.328950000e-01 -2.664970000e-01  1.515379437e+00  1.832320000e-01
 3.432744000e+01  2.652837200e+01  1.560094200e+01  1.295440000e+00  3.953720000e-01 -2.400580000e-01  1.375540496e+00  1.662780000e-01
 3.556089000e+01  2.442596700e+01  1.597976100e+01  1.160890000e+00  3.569670000e-01 -2.162390000e-01  1.233632983e+00  1.513610000e-01
 3.666725000e+01  2.222697400e+01  1.637562700e+01  1.024250000e+00  3.189740000e-01 -1.953730000e-01  1.090414180e+00  1.381930000e-01
 3.764936600e+01  1.994714600e+01  1.675682100e+01  8.863660000e-01  2.821460000e-01 -1.771790000e-01  9.469125880e-01  1.266660000e-01
 3.850857500e+01  1.759692100e+01  1.710606400e+01  7.485750000e-01  2.469210000e-01 -1.609360000e-01  8.045091093e-01  1.168590000e-01
 3.924370600e+01  1.518631900e+01  1.741733800e+01  6.127060000e-01  2.133190000e-01 -1.456620000e-01  6.649293620e-01  1.090330000e-01
 3.985406900e+01  1.272794900e+01  1.768481800e+01  4.810690000e-01  1.809490000e-01 -1.301820000e-01  5.302049382e-01  1.036690000e-01
 4.033861100e+01  1.022883400e+01  1.790986900e+01  3.566110000e-01  1.488340000e-01 -1.131310000e-01  4.026432516e-01  1.014560000e-01
 4.070079400e+01  7.699018000e+00  1.809102990e+01  2.427940000e-01  1.155180000e-01 -9.297010000e-02  2.844938914e-01  1.032060000e-01
 4.094018400e+01  5.145228500e+00  1.823513410e+01  1.441840000e-01  7.852850000e-02 -6.786590000e-02  1.776556544e-01  1.102640000e-01
 4.106375680e+01  2.571893700e+00  1.835817670e+01  7.175680000e-02  3.529370000e-02 -3.282330000e-02  8.644103556e-02  1.098030000e-01
 3.231557000e+01  2.797633300e+01  1.744527900e+01  1.427570000e+00  4.303330000e-01 -2.207210000e-01  1.507269172e+00  1.895190000e-01
 3.361460000e+01  2.602668600e+01  1.778735900e+01  1.295600000e+00  3.946860000e-01 -1.986410000e-01  1.368873495e+00  1.723230000e-01
 3.477622000e+01  2.396073100e+01  1.820384900e+01  1.161220000e+00  3.577310000e-01 -1.791510000e-01  1.228209444e+00  1.572010000e-01
 3.581287000e+01  2.179877700e+01  1.863828700e+01  1.024870000e+00  3.207770000e-01 -1.627130000e-01  1.086154649e+00  1.438710000e-01
 3.672942500e+01  1.955761500e+01  1.905692300e+01  8.874250000e-01  2.846150000e-01 -1.490770000e-01  9.437970019e-01  1.322420000e-01
 3.752923400e+01  1.724967400e+01  1.944052100e+01  7.502340000e-01  2.496740000e-01 -1.374790000e-01  8.025513295e-01  1.224220000e-01
 3.821208500e+01  1.488501400e+01  1.978018300e+01  6.150850000e-01  2.160140000e-01 -1.268170000e-01  6.641341408e-01  1.146950000e-01
 3.877722600e+01  1.247327300e+01  2.007322800e+01  4.842260000e-01  1.832730000e-01 -1.157720000e-01  5.305346055e-01  1.095490000e-01
 3.922646300e+01  1.002305400e+01  2.031620500e+01  3.604630000e-01  1.505540000e-01 -1.027950000e-01  4.039392198e-01  1.076070000e-01
 3.956109500e+01  7.543604000e+00  2.051185510e+01  2.470950000e-01  1.165040000e-01 -8.614490000e-02  2.864438249e-01  1.095080000e-01
 3.978036200e+01  5.040908300e+00  2.066621560e+01  1.483620000e-01  7.890830000e-02 -6.378440000e-02  1.797394017e-01  1.164610000e-01
 3.988761340e+01  2.519209600e+00  2.079673320e+01  7.461340000e-02  3.530960000e-02 -3.026680000e-02  8.792045549e-02  1.155340000e-01
 3.158974000e+01  2.736581200e+01  1.955360500e+01  1.422740000e+00  4.258120000e-01 -1.743950000e-01  1.495298827e+00  1.957670000e-01
 3.280978000e+01  2.546231600e+01  1.992126500e+01  1.291780000e+00  3.923160000e-01 -1.567350000e-01  1.359107528e+00  1.784980000e-01
 3.389133000e+01  2.343906700e+01  2.037042600e+01  1.158330000e+00  3.570670000e-01 -1.415740000e-01  1.220355862e+00  1.633030000e-01
 3.484991000e+01  2.132144500e+01  2.083948100e+01  1.022910000e+00  3.214450000e-01 -1.295190000e-01  1.080021725e+00  1.499160000e-01
 3.569448800e+01  1.912619200e+01  2.129161900e+01  8.864880000e-01  2.861920000e-01 -1.203810000e-01  9.392861226e-01  1.382480000e-01
 3.642840900e+01  1.686578600e+01  2.170566500e+01  7.504090000e-01  2.517860000e-01 -1.133350000e-01  7.995965728e-01  1.284250000e-01
 3.705345400e+01  1.455127900e+01  2.207179000e+01  6.164540000e-01  2.182790000e-01 -1.072100000e-01  6.626878904e-01  1.207790000e-01
 3.756977400e+01  1.219234600e+01  2.238646300e+01  4.867740000e-01  1.853460000e-01 -1.005370000e-01  5.304806831e-01  1.158130000e-01
 3.797903100e+01  9.797257000e+00  2.264739490e+01  3.640310000e-01  1.521570000e-01 -9.160510000e-02  4.050454492e-01  1.140970000e-01
 3.828232700e+01  7.373768000e+00  2.285651840e+01  2.513270000e-01  1.174680000e-01 -7.848160000e-02  2.883112094e-01  1.161220000e-01
 3.847858100e+01  4.927614900e+00  2.302004950e+01  1.525810000e-01  7.931490000e-02 -5.895050000e-02  1.817882735e-01  1.229730000e-01
 3.856850670e+01  2.462868100e+00  2.315880800e+01  7.750670000e-02  3.536810000e-02 -2.719200000e-02  8.942927880e-02  1.215650000e-01
 3.078947000e+01  2.670043800e+01  2.158143200e+01  1.413470000e+00  4.194380000e-01 -1.285680000e-01  1.479984935e+00  2.019510000e-01
 3.191436000e+01  2.486348900e+01  2.197176700e+01  1.285360000e+00  3.884890000e-01 -1.152330000e-01  1.347721291e+00  1.848970000e-01
 3.290408000e+01  2.289736000e+01  2.245177400e+01  1.154080000e+00  3.553600000e-01 -1.042260000e-01  1.212041433e+00  1.698660000e-01
 3.377745000e+01  2.083131000e+01  2.295365170e+01  1.020450000e+00  3.213100000e-01 -9.634830000e-02  1.074170058e+00  1.565710000e-01
 3.454357200e+01  1.868723500e+01  2.343755520e+01  8.855720000e-01  2.872350000e-01 -9.144480000e-02  9.354698626e-01  1.448850000e-01
 3.520697900e+01  1.647857400e+01  2.388124250e+01  7.509790000e-01  2.535740000e-01 -8.875750000e-02  7.975883184e-01  1.350220000e-01
 3.577045300e+01  1.421840400e+01  2.427300010e+01  6.184530000e-01  2.204040000e-01 -8.699990000e-02  6.622922459e-01  1.273950000e-01
 3.623508500e+01  1.191442500e+01  2.460841280e+01  4.900850000e-01  1.874250000e-01 -8.458720000e-02  5.314757118e-01  1.225280000e-01
 3.660237900e+01  9.575777000e+00  2.488735600e+01  3.683790000e-01  1.538770000e-01 -7.964400000e-02  4.070926007e-01  1.209580000e-01
 3.687224800e+01  7.209323000e+00  2.510993980e+01  2.562480000e-01  1.186230000e-01 -7.006020000e-02  2.909345034e-01  1.230530000e-01
 3.704329100e+01  4.820136800e+00  2.528354530e+01  1.572910000e-01  7.993680000e-02 -5.345470000e-02  1.843576839e-01  1.298080000e-01
 3.711260720e+01  2.410565700e+00  2.543233220e+01  8.060720000e-02  3.556570000e-02 -2.366780000e-02  9.122830956e-02  1.279220000e-01
 2.993006000e+01  2.604703600e+01  2.345376060e+01  1.403060000e+00  4.120360000e-01 -8.523940000e-02  1.464792403e+00  2.081100000e-01
 3.092495000e+01  2.431139200e+01  2.387744500e+01  1.280950000e+00  3.843920000e-01 -7.555500000e-02  1.339514341e+00  1.918510000e-01
 3.180571000e+01  2.242064200e+01  2.439701310e+01  1.153710000e+00  3.536420000e-01 -6.798690000e-02  1.208607317e+00  1.773880000e-01
 3.258457000e+01  2.041447300e+01  2.493945650e+01  1.022570000e+00  3.214730000e-01 -6.354350000e-02  1.073793309e+00  1.642430000e-01
 3.326845200e+01  1.832173600e+01  2.545959340e+01  8.894520000e-01  2.887360000e-01 -6.240660000e-02  9.372235175e-01  1.524660000e-01
 3.386219900e+01  1.616292000e+01  2.593628240e+01  7.561990000e-01  2.559200000e-01 -6.371760000e-02  8.008694691e-01  1.424570000e-01
 3.436473500e+01  1.395114200e+01  2.635688480e+01  6.247350000e-01  2.231420000e-01 -6.611520000e-02  6.666763773e-01  1.347140000e-01
 3.477812800e+01  1.169614800e+01  2.671713880e+01  4.971280000e-01  1.901480000e-01 -6.786120000e-02  5.365609497e-01  1.298020000e-01
 3.510276900e+01  9.405554000e+00  2.701608360e+01  3.757690000e-01  1.562540000e-01 -6.691640000e-02  4.124263067e-01  1.282410000e-01
 3.533941900e+01  7.086517000e+00  2.725503220e+01  2.634190000e-01  1.204170000e-01 -6.096780000e-02  2.959846214e-01  1.303060000e-01
 3.548335900e+01  4.742300100e+00  2.744355250e+01  1.633590000e-01  8.110010000e-02 -4.744750000e-02  1.884533214e-01  1.369580000e-01
 3.552824110e+01  2.373434800e+00  2.760718300e+01  8.424110000e-02  3.603480000e-02 -1.981700000e-02  9.374317697e-02  1.346270000e-01
 2.902344000e+01  2.552965900e+01  2.506587050e+01  1.398440000e+00  4.056590000e-01 -4.712950000e-02  1.456851004e+00  2.149120000e-01
 2.983644000e+01  2.392637600e+01  2.556493560e+01  1.286440000e+00  3.813760000e-01 -3.906440000e-02  1.342349267e+00  2.004420000e-01
 3.058423000e+01  2.211838800e+01  2.615397030e+01  1.164230000e+00  3.533880000e-01 -3.302970000e-02  1.217130039e+00  1.866470000e-01
 3.126270000e+01  2.016925000e+01  2.675407040e+01  1.035700000e+00  3.232500000e-01 -3.092960000e-02  1.085413144e+00  1.734530000e-01
 3.186681300e+01  1.812085900e+01  2.732423160e+01  9.038130000e-01  2.918590000e-01 -3.276840000e-02  9.503333009e-01  1.613740000e-01
 3.239201400e+01  1.599982400e+01  2.784337240e+01  7.710140000e-01  2.598240000e-01 -3.762760000e-02  8.144856877e-01  1.509780000e-01
 3.283843600e+01  1.382032900e+01  2.830102970e+01  6.394360000e-01  2.273290000e-01 -4.397030000e-02  6.800663641e-01  1.428660000e-01
 3.320420500e+01  1.159519400e+01  2.869311800e+01  5.112050000e-01  1.941940000e-01 -4.988200000e-02  5.491175426e-01  1.376630000e-01
 3.349065800e+01  9.332918000e+00  2.901789330e+01  3.886580000e-01  1.598180000e-01 -5.310670000e-02  4.235766231e-01  1.359110000e-01
 3.369445300e+01  7.038235000e+00  2.927894190e+01  2.744530000e-01  1.232350000e-01 -5.105810000e-02  3.051528207e-01  1.378310000e-01
 3.381065500e+01  4.713856300e+00  2.948904300e+01  1.716550000e-01  8.305630000e-02 -4.095700000e-02  1.950416977e-01  1.443740000e-01
 3.382474610e+01  2.360099700e+00  2.967430670e+01  8.874610000e-02  3.689970000e-02 -1.569330000e-02  9.738448434e-02  1.416790000e-01
-2.451754000e+01  2.403245000e+01  2.548638000e+01  5.057460000e+00 -5.608550000e+00 -3.916620000e+00  8.507270242e+00  1.088730000e+00
-4.348500000e-01  3.525491000e+01  3.505173000e+01  2.119250000e+00 -1.077090000e+00 -1.152270000e+00  2.641792873e+00  2.030490000e-01
-2.827870000e+00  3.458132000e+01  3.441881000e+01  2.284930000e+00 -1.526680000e+00 -1.485190000e+00  3.123691128e+00  2.455520000e-01
-5.158220000e+00  3.378086000e+01  3.372453000e+01  2.502180000e+00 -2.030140000e+00 -1.850470000e+00  3.715725016e+00  3.170060000e-01
-7.409490000e+00  3.285433000e+01  3.295779000e+01  2.778510000e+00 -2.579670000e+00 -2.233210000e+00  4.400232043e+00  4.076180000e-01
-9.577620000e+00  3.182120000e+01  3.212262000e+01  3.111380000e+00 -3.160800000e+00 -2.619380000e+00  5.150970174e+00  5.101030000e-01
-1.166561000e+01  3.070458000e+01  3.123826000e+01  3.492390000e+00 -3.754420000e+00 -2.985740000e+00  5.933557179e+00  6.196920000e-01
-1.369348000e+01  2.953310000e+01  3.031790000e+01  3.893520000e+00 -4.333900000e+00 -3.319100000e+00  6.705118344e+00  7.309950000e-01
-1.567576000e+01  2.834588000e+01  2.938948000e+01  4.294240000e+00 -4.865120000e+00 -3.593520000e+00  7.417767574e+00  8.379590000e-01
-1.765362000e+01  2.718932000e+01  2.846658000e+01  4.639380000e+00 -5.308680000e+00 -3.799420000e+00  8.008840270e+00  9.344270000e-01
-1.962908000e+01  2.612075000e+01  2.755963000e+01  4.903920000e+00 -5.619250000e+00 -3.933370000e+00  8.431832629e+00  1.011800000e+00
-2.156765000e+01  2.521103000e+01  2.670375000e+01  5.052350000e+00 -5.754970000e+00 -3.992250000e+00  8.636201728e+00  1.063310000e+00
-2.331601000e+01  2.452678000e+01  2.597473000e+01  5.088990000e+00 -5.709220000e+00 -3.985270000e+00  8.624116720e+00  1.086630000e+00
-2.544925000e+01  2.351497000e+01  2.634563000e+01  4.664750000e+00 -4.922030000e+00 -3.640370000e+00  7.696659381e+00  9.786730000e-01
-2.675552000e+01  2.262280000e+01  2.754197000e+01  4.089480000e+00 -4.022200000e+00 -3.194030000e+00  6.565345928e+00  8.292250000e-01
-2.820973000e+01  2.145337000e+01  2.885773000e+01  3.438270000e+00 -3.096630000e+00 -2.663270000e+00  5.338897362e+00  6.745850000e-01
-2.966279000e+01  2.003839000e+01  3.018096000e+01  2.773210000e+00 -2.262610000e+00 -2.102040000e+00  4.150743292e+00  5.296940000e-01
-3.103424000e+01  1.840117000e+01  3.144110000e+01  2.136760000e+00 -1.567830000e+00 -1.556900000e+00  3.073722794e+00  4.069750000e-01
-3.228333000e+01  1.655697000e+01  3.259666000e+01  1.557670000e+00 -1.024030000e+00 -1.058340000e+00  2.143608366e+00  3.205010000e-01
-3.338739000e+01  1.452499800e+01  3.361663400e+01  1.055610000e+00 -6.230020000e-01 -6.303660000e-01  1.378334233e+00  2.769620000e-01
-3.433001100e+01  1.233199900e+01  3.448192800e+01  6.439890000e-01 -3.460010000e-01 -2.890720000e-01  7.861304887e-01  2.635300000e-01
-3.510305400e+01  1.000767800e+01  3.518384740e+01  3.289460000e-01 -1.683220000e-01 -4.315260000e-02  3.720213885e-01  2.602560000e-01
-3.570143500e+01  7.586731700e+00  3.572065900e+01  1.105650000e-01 -6.356830000e-02  1.056590000e-01  1.656181520e-01  2.566560000e-01
-3.613133210e+01  5.099957760e+00  3.610770800e+01 -1.833210000e-02 -7.342240000e-03  1.637080000e-01  1.648947654e-01  2.467700000e-01
-3.639979160e+01  2.559290460e+00  3.636726100e+01 -6.079160000e-02  4.290460000e-03  1.342610000e-01  1.474450501e-01  2.344300000e-01
-2.476125000e+01  2.397901000e+01  2.410161000e+01  5.392750000e+00 -6.192990000e+00 -4.080390000e+00  9.169757917e+00  1.205030000e+00
-2.511699000e+01  2.382019000e+01  2.214895000e+01  5.777010000e+00 -7.056810000e+00 -4.263050000e+00  1.006707541e+01  1.391900000e+00
-2.556829000e+01  2.374684000e+01  1.986060000e+01  6.097710000e+00 -7.897160000e+00 -4.498400000e+00  1.094453315e+01  1.621510000e+00
-2.617586000e+01  2.377853000e+01  1.741686000e+01  6.241140000e+00 -8.627470000e+00 -4.730140000e+00  1.165157893e+01  1.808810000e+00
-2.686123000e+01  2.429139000e+01  1.490855000e+01  6.263770000e+00 -8.833610000e+00 -4.930450000e+00  1.189860569e+01  1.836730000e+00
-2.753456000e+01  2.534528000e+01  1.257733000e+01  6.243440000e+00 -8.439720000e+00 -4.890670000e+00  1.158136735e+01  1.689070000e+00
-2.825245000e+01  2.664143000e+01  1.046348000e+01  6.115550000e+00 -7.736570000e+00 -4.586520000e+00  1.087614973e+01  1.451390000e+00
-2.906972000e+01  2.796537000e+01  8.458580000e+00  5.821280000e+00 -6.935630000e+00 -4.137420000e+00  9.955325640e+00  1.216560000e+00
-2.992900000e+01  2.928721000e+01  6.518310000e+00  5.415000000e+00 -6.065790000e+00 -3.595690000e+00  8.890726624e+00  1.019780000e+00
-3.081609000e+01  3.053301000e+01  4.534160000e+00  4.910910000e+00 -5.199990000e+00 -3.076340000e+00  7.785936092e+00  8.517670000e-01
-3.167771000e+01  3.169013000e+01  2.477570000e+00  4.361290000e+00 -4.352870000e+00 -2.612030000e+00  6.692609986e+00  6.988380000e-01
-3.249612000e+01  3.274586000e+01  3.320900000e-01  3.796880000e+00 -3.549140000e+00 -2.220610000e+00  5.651884752e+00  5.567090000e-01
-2.290546000e+01  2.114384000e+01  2.442039000e+01  4.822540000e+00 -6.598160000e+00 -3.073610000e+00  8.731533993e+00  1.105910000e+00
-3.411707110e+01  2.570550440e+00  3.848905900e+01 -3.807110000e-02  3.750440000e-03  1.520590000e-01  1.567973658e-01  2.425420000e-01
-3.172169500e+01  2.617833850e+00  4.047364300e+01 -1.369500000e-02  3.533850000e-03  1.676430000e-01  1.682385704e-01  2.515250000e-01
-2.921417490e+01  2.682772960e+00  4.231051200e+01  1.182510000e-02  3.372960000e-03  1.805120000e-01  1.809303512e-01  2.607870000e-01
-2.660503620e+01  2.753959660e+00  4.399402500e+01  3.796380000e-02  3.259660000e-03  1.900250000e-01  1.938075750e-01  2.697340000e-01
-2.390492790e+01  2.826386350e+00  4.551770100e+01  6.407210000e-02  3.186350000e-03  1.957010000e-01  2.059472462e-01  2.776900000e-01
-2.112448910e+01  2.899149570e+00  4.687536000e+01  8.951090000e-02  3.149570000e-03  1.973600000e-01  2.167327631e-01  2.840880000e-01
-1.827724600e+01  2.974117600e+00  4.806112400e+01  1.137540000e-01  3.117600000e-03  1.951240000e-01  2.258828619e-01  2.885080000e-01
-1.537652300e+01  3.056028350e+00  4.907343700e+01  1.364770000e-01  3.028350000e-03  1.894370000e-01  2.334984355e-01  2.907000000e-01
-1.243634700e+01  3.152215430e+00  4.990696600e+01  1.576530000e-01  2.915430000e-03  1.809660000e-01  2.400242931e-01  2.905610000e-01
-9.458464000e+00  3.267723580e+00  5.056418400e+01  1.774360000e-01  2.623580000e-03  1.701840000e-01  2.458719405e-01  2.881330000e-01
-6.408108000e+00  3.386314380e+00  5.105344300e+01  1.951920000e-01  2.714380000e-03  1.564430000e-01  2.501633406e-01  2.834410000e-01
-3.202832000e+00  3.411735380e+00  5.139901200e+01  2.051680000e-01  1.435380000e-03  1.360120000e-01  2.461609894e-01  2.771160000e-01
-3.386811660e+01  5.135632920e+00  3.822123000e+01  1.388340000e-02 -9.067080000e-03  2.002300000e-01  2.009154390e-01  2.518380000e-01
-3.148576770e+01  5.231695700e+00  4.019427800e+01  4.923230000e-02 -1.060430000e-02  2.342780000e-01  2.396298225e-01  2.576880000e-01
-2.899323640e+01  5.361268300e+00  4.202130000e+01  8.676360000e-02 -1.193170000e-02  2.653000000e-01  2.793821357e-01  2.640030000e-01
-2.639946800e+01  5.504144600e+00  4.369860500e+01  1.255320000e-01 -1.275540000e-02  2.926050000e-01  3.186513287e-01  2.702890000e-01
-2.371723500e+01  5.650385700e+00  4.521802400e+01  1.647650000e-01 -1.301430000e-02  3.150240000e-01  3.557485036e-01  2.760190000e-01
-2.095720400e+01  5.797806700e+00  4.657562600e+01  2.037960000e-01 -1.279330000e-02  3.316260000e-01  3.894512576e-01  2.806890000e-01
-1.813391000e+01  5.949118700e+00  4.776389100e+01  2.420900000e-01 -1.228130000e-02  3.418910000e-01  4.191036319e-01  2.838870000e-01
-1.525771000e+01  6.110941700e+00  4.877885500e+01  2.792900000e-01 -1.165830000e-02  3.458550000e-01  4.446959648e-01  2.853180000e-01
-1.233772100e+01  6.291494300e+00  4.961805700e+01  3.152790000e-01 -1.120570000e-02  3.440570000e-01  4.667993518e-01  2.847980000e-01
-9.363386000e+00  6.489157600e+00  5.028467700e+01  3.497140000e-01 -1.084240000e-02  3.366770000e-01  4.855603379e-01  2.821520000e-01
-6.278608000e+00  6.654651900e+00  5.079464700e+01  3.798920000e-01 -1.094810000e-02  3.216470000e-01  4.978901336e-01  2.773440000e-01
-3.012411000e+00  6.633162700e+00  5.118042700e+01  3.949890000e-01 -1.053730000e-02  2.904270000e-01  4.903826946e-01  2.709340000e-01
-3.347537200e+01  7.655828600e+00  3.782372100e+01  1.436280000e-01 -6.197140000e-02  1.587210000e-01  2.228493048e-01  2.602370000e-01
-3.111579600e+01  7.804760900e+00  3.977781600e+01  1.812040000e-01 -6.103910000e-02  2.098160000e-01  2.838721811e-01  2.645460000e-01
-2.864339900e+01  8.002092500e+00  4.158798100e+01  2.216010000e-01 -5.910750000e-02  2.589810000e-01  3.459362053e-01  2.694060000e-01
-2.606959000e+01  8.219802200e+00  4.325183400e+01  2.634100000e-01 -5.539780000e-02  3.058340000e-01  4.074164698e-01  2.742480000e-01
-2.340602500e+01  8.442599700e+00  4.476372500e+01  3.059750000e-01 -4.990030000e-02  3.487250000e-01  4.666046144e-01  2.786220000e-01
-2.066597100e+01  8.665916800e+00  4.611877600e+01  3.490290000e-01 -4.308320000e-02  3.857760000e-01  5.220158304e-01  2.820540000e-01
-1.785863700e+01  8.890856700e+00  4.730832700e+01  3.923630000e-01 -3.554330000e-02  4.153270000e-01  5.724583538e-01  2.841240000e-01
-1.499428400e+01  9.121948200e+00  4.832733300e+01  4.357160000e-01 -2.795180000e-02  4.363330000e-01  6.172651154e-01  2.845070000e-01
-1.207537100e+01  9.363207000e+00  4.917434700e+01  4.786290000e-01 -2.079300000e-02  4.483470000e-01  6.561502121e-01  2.829520000e-01
-9.087326000e+00  9.602099200e+00  4.985177500e+01  5.198740000e-01 -1.450080000e-02  4.507750000e-01  6.882422173e-01  2.793100000e-01
-5.985609000e+00  9.772239510e+00  5.037685600e+01  5.546910000e-01 -8.860490000e-03  4.408560000e-01  7.086004703e-01  2.736850000e-01
-2.740088000e+00  9.718747960e+00  5.078988800e+01  5.728120000e-01 -4.852040000e-03  4.118880000e-01  7.055415326e-01  2.664200000e-01
-3.292563300e+01  1.011521600e+01  3.726675320e+01  3.543670000e-01 -1.587840000e-01  2.275320000e-02  3.889807675e-01  2.621260000e-01
-3.060034400e+01  1.031908100e+01  3.919111670e+01  3.856560000e-01 -1.519190000e-01  8.811670000e-02  4.237622986e-01  2.648580000e-01
-2.815595700e+01  1.058391000e+01  4.097187300e+01  4.200430000e-01 -1.430900000e-01  1.538730000e-01  4.696677231e-01  2.685610000e-01
-2.560954200e+01  1.087662400e+01  4.261350200e+01  4.554580000e-01 -1.303760000e-01  2.205020000e-01  5.225524119e-01  2.726090000e-01
-2.297350500e+01  1.117511700e+01  4.411119600e+01  4.914950000e-01 -1.138830000e-01  2.861960000e-01  5.800386393e-01  2.766600000e-01
-2.025936500e+01  1.147236260e+01  4.545901600e+01  5.286350000e-01 -9.463740000e-02  3.480160000e-01  6.399424482e-01  2.802440000e-01
-1.747363200e+01  1.176494950e+01  4.664785200e+01  5.673680000e-01 -7.405050000e-02  4.028520000e-01  6.997711468e-01  2.828350000e-01
-1.462524400e+01  1.205454090e+01  4.767208100e+01  6.077560000e-01 -5.345910000e-02  4.480810000e-01  7.569688326e-01  2.839510000e-01
-1.171480000e+01  1.233897360e+01  4.852791600e+01  6.492000000e-01 -3.402640000e-02  4.819160000e-01  8.092351123e-01  2.832120000e-01
-8.730919000e+00  1.259965270e+01  4.921788300e+01  6.896810000e-01 -1.634730000e-02  5.028830000e-01  8.537086316e-01  2.804060000e-01
-5.647478000e+00  1.277012086e+01  4.976186600e+01  7.243220000e-01 -8.791370000e-04  5.088660000e-01  8.852049133e-01  2.752740000e-01
-2.464225000e+00  1.272147040e+01  5.020030200e+01  7.439750000e-01  1.047040000e-02  4.953020000e-01  8.938302418e-01  2.679680000e-01
-3.221451700e+01  1.248052300e+01  3.653149900e+01  6.534830000e-01 -3.234770000e-01 -2.145010000e-01  7.600579450e-01  2.624700000e-01
-2.993382100e+01  1.273890400e+01  3.841348700e+01  6.701790000e-01 -3.070960000e-01 -1.385130000e-01  7.500891257e-01  2.625280000e-01
-2.752920700e+01  1.307247400e+01  4.015324530e+01  6.897930000e-01 -2.875260000e-01 -5.875470000e-02  7.496250385e-01  2.640830000e-01
-2.502174800e+01  1.343904600e+01  4.176076640e+01  7.092520000e-01 -2.609540000e-01  2.676640000e-02  7.562088533e-01  2.665490000e-01
-2.242551700e+01  1.381366600e+01  4.323546700e+01  7.284830000e-01 -2.273340000e-01  1.164670000e-01  7.719668328e-01  2.698350000e-01
-1.974892400e+01  1.418242100e+01  4.456946300e+01  7.490760000e-01 -1.885790000e-01  2.064630000e-01  7.995647962e-01  2.735970000e-01
-1.700031500e+01  1.454076000e+01  4.575598300e+01  7.726850000e-01 -1.472400000e-01  2.919830000e-01  8.390326568e-01  2.772190000e-01
-1.418383800e+01  1.488511700e+01  4.678456800e+01  8.001620000e-01 -1.058830000e-01  3.685680000e-01  8.873064896e-01  2.799770000e-01
-1.130084600e+01  1.520944470e+01  4.765166900e+01  8.311540000e-01 -6.655530000e-02  4.326690000e-01  9.393875895e-01  2.812140000e-01
-8.345853000e+00  1.549335310e+01  4.835882800e+01  8.636470000e-01 -3.064690000e-02  4.818280000e-01  9.894359983e-01  2.804150000e-01
-5.308728000e+00  1.567682526e+01  4.892415600e+01  8.928720000e-01  8.252610000e-04  5.141560000e-01  1.030328822e+00  2.769980000e-01
-2.202337000e+00  1.566380420e+01  4.938931700e+01  9.110630000e-01  2.580420000e-02  5.263170000e-01  1.052478613e+00  2.710850000e-01
-3.134431000e+01  1.471902400e+01  3.561973700e+01  1.041690000e+00 -5.819760000e-01 -5.512630000e-01  1.314421932e+00  2.704070000e-01
-2.912075000e+01  1.503275000e+01  3.744546400e+01  1.036250000e+00 -5.522500000e-01 -4.685360000e-01  1.264246854e+00  2.654020000e-01
-2.676598000e+01  1.543209300e+01  3.912923700e+01  1.033020000e+00 -5.179070000e-01 -3.777630000e-01  1.215756088e+00  2.621940000e-01
-2.431050000e+01  1.587292800e+01  4.069094800e+01  1.027500000e+00 -4.720720000e-01 -2.750520000e-01  1.163727557e+00  2.603830000e-01
-2.176807000e+01  1.632370200e+01  4.213188400e+01  1.019930000e+00 -4.142980000e-01 -1.611160000e-01  1.112590852e+00  2.604460000e-01
-1.914658000e+01  1.676744200e+01  4.344633360e+01  1.013420000e+00 -3.475580000e-01 -4.066640000e-02  1.072133581e+00  2.625400000e-01
-1.645172000e+01  1.719485300e+01  4.462491040e+01  1.011280000e+00 -2.761470000e-01  7.991040000e-02  1.051346792e+00  2.661660000e-01
-1.368624000e+01  1.759871800e+01  4.565806400e+01  1.015760000e+00 -2.042820000e-01  1.940640000e-01  1.054115909e+00  2.703530000e-01
-1.085268000e+01  1.796844200e+01  4.653720800e+01  1.027320000e+00 -1.355580000e-01  2.962080000e-01  1.077729805e+00  2.739830000e-01
-7.949750000e+00  1.828552940e+01  4.726334700e+01  1.044350000e+00 -7.247060000e-02  3.823470000e-01  1.114499053e+00  2.760440000e-01
-4.977540000e+00  1.850034420e+01  4.785206700e+01  1.062560000e+00 -1.665580000e-02  4.500670000e-01  1.154067361e+00  2.755360000e-01
-1.953360000e+00  1.854069550e+01  4.834631700e+01  1.075140000e+00  2.969550000e-02  4.963170000e-01  1.184541433e+00  2.723180000e-01
-3.032281000e+01  1.679911800e+01  3.453940500e+01  1.514190000e+00 -9.588820000e-01 -9.785950000e-01  2.042026988e+00  3.047590000e-01
-2.816658000e+01  1.716717700e+01  3.629442600e+01  1.480420000e+00 -9.118230000e-01 -8.925740000e-01  1.954418815e+00  2.910580000e-01
-2.587555000e+01  1.763261500e+01  3.791001700e+01  1.447450000e+00 -8.583850000e-01 -7.939830000e-01  1.860737842e+00  2.788010000e-01
-2.348304000e+01  1.814751200e+01  3.941282400e+01  1.408960000e+00 -7.874880000e-01 -6.761760000e-01  1.750005604e+00  2.675150000e-01
-2.100944000e+01  1.867728000e+01  4.080915000e+01  1.365560000e+00 -6.977200000e-01 -5.388500000e-01  1.625400454e+00  2.586220000e-01
-1.845891000e+01  1.920146900e+01  4.209495700e+01  1.322090000e+00 -5.935310000e-01 -3.870430000e-01  1.500001100e+00  2.537090000e-01
-1.583483000e+01  1.970368700e+01  4.326021800e+01  1.284170000e+00 -4.813130000e-01 -2.287820000e-01  1.390358226e+00  2.532700000e-01
-1.314016000e+01  2.017428700e+01  4.429226100e+01  1.255840000e+00 -3.677130000e-01 -7.273900000e-02  1.310586860e+00  2.563770000e-01
-1.037589000e+01  2.060262900e+01  4.518325860e+01  1.239110000e+00 -2.583710000e-01  7.325860000e-02  1.267878538e+00  2.612410000e-01
-7.544550000e+00  2.096658600e+01  4.592916200e+01  1.233150000e+00 -1.574140000e-01  2.031620000e-01  1.259647922e+00  2.660010000e-01
-4.650980000e+00  2.122862420e+01  4.654430100e+01  1.234320000e+00 -6.737580000e-02  3.133010000e-01  1.275242282e+00  2.689130000e-01
-1.713210000e+00  2.133343642e+01  4.706607900e+01  1.236290000e+00  9.436420000e-03  4.000790000e-01  1.299448043e+00  2.693030000e-01
-2.916495000e+01  1.869494000e+01  3.330858000e+01  2.060050000e+00 -1.473060000e+00 -1.479420000e+00  2.932984027e+00  3.801430000e-01
-2.708541000e+01  1.911756000e+01  3.498064000e+01  1.993590000e+00 -1.404440000e+00 -1.393360000e+00  2.808612627e+00  3.557510000e-01
-2.486621000e+01  1.964849000e+01  3.651458000e+01  1.925790000e+00 -1.327510000e+00 -1.289420000e+00  2.670871367e+00  3.318070000e-01
-2.254990000e+01  2.023952000e+01  3.794507000e+01  1.848100000e+00 -1.225480000e+00 -1.158930000e+00  2.502077854e+00  3.069460000e-01
-2.015674000e+01  2.085132000e+01  3.928632200e+01  1.761260000e+00 -1.095680000e+00 -9.996780000e-01  2.302587144e+00  2.827370000e-01
-1.769156000e+01  2.146009500e+01  4.053377500e+01  1.672440000e+00 -9.439050000e-01 -8.172250000e-01  2.087071849e+00  2.623360000e-01
-1.515638000e+01  2.204646600e+01  4.167716400e+01  1.589620000e+00 -7.795340000e-01 -6.208360000e-01  1.876166928e+00  2.489610000e-01
-1.254830000e+01  2.259588500e+01  4.270289500e+01  1.519700000e+00 -6.121150000e-01 -4.211050000e-01  1.691597554e+00  2.439470000e-01
-9.871670000e+00  2.309289900e+01  4.360073100e+01  1.466330000e+00 -4.501010000e-01 -2.282690000e-01  1.550748631e+00  2.457300000e-01
-7.128170000e+00  2.352038400e+01  4.436342340e+01  1.430130000e+00 -2.996160000e-01 -5.057660000e-02  1.462053199e+00  2.510480000e-01
-4.324740000e+00  2.384352000e+01  4.500345300e+01  1.408060000e+00 -1.644800000e-01  1.064530000e-01  1.421625434e+00  2.566650000e-01
-1.478540000e+00  2.402167790e+01  4.555319300e+01  1.394160000e+00 -4.732210000e-02  2.381930000e-01  1.415152780e+00  2.608430000e-01
-2.789053000e+01  2.038743000e+01  3.195664000e+01  2.662470000e+00 -2.133570000e+00 -2.030360000e+00  3.970293336e+00  4.922950000e-01
-2.589619000e+01  2.086743000e+01  3.353094000e+01  2.561810000e+00 -2.039570000e+00 -1.946060000e+00  3.809181774e+00  4.579470000e-01
-2.375768000e+01  2.146354000e+01  3.496955000e+01  2.456320000e+00 -1.934460000e+00 -1.839450000e+00  3.627563885e+00  4.232750000e-01
-2.152603000e+01  2.213173000e+01  3.631793000e+01  2.334970000e+00 -1.795270000e+00 -1.698070000e+00  3.399782493e+00  3.854960000e-01
-1.922461000e+01  2.282986000e+01  3.759179000e+01  2.199390000e+00 -1.617140000e+00 -1.519210000e+00  3.124173039e+00  3.450120000e-01
-1.685859000e+01  2.352896000e+01  3.878985000e+01  2.058410000e+00 -1.408040000e+00 -1.308150000e+00  2.816182663e+00  3.049090000e-01
-1.442430000e+01  2.420763000e+01  3.990081000e+01  1.923700000e+00 -1.180370000e+00 -1.075190000e+00  2.499985713e+00  2.701450000e-01
-1.191962000e+01  2.484552100e+01  4.091214200e+01  1.804380000e+00 -9.474790000e-01 -8.328580000e-01  2.201625783e+00  2.459210000e-01
-9.343780000e+00  2.542511200e+01  4.180881500e+01  1.707220000e+00 -7.208880000e-01 -5.931850000e-01  1.945802683e+00  2.348600000e-01
-6.701010000e+00  2.592759500e+01  4.258408800e+01  1.634090000e+00 -5.094050000e-01 -3.669120000e-01  1.750533632e+00  2.347670000e-01
-3.997120000e+00  2.632362800e+01  4.324460000e+01  1.583080000e+00 -3.183720000e-01 -1.614000000e-01  1.622822534e+00  2.402600000e-01
-1.248290000e+00  2.658414400e+01  4.382007070e+01  1.548110000e+00 -1.508560000e-01  1.707070000e-02  1.555536407e+00  2.471640000e-01
-2.654536000e+01  2.186194000e+01  3.051476000e+01  3.298640000e+00 -2.933060000e+00 -2.599240000e+00  5.122491131e+00  6.274480000e-01
-2.464428000e+01  2.240123000e+01  3.197153000e+01  3.166720000e+00 -2.811770000e+00 -2.521470000e+00  4.928689182e+00  5.848860000e-01
-2.259298000e+01  2.306582000e+01  3.330323000e+01  3.024020000e+00 -2.676180000e+00 -2.413770000e+00  4.704563951e+00  5.418840000e-01
-2.045197000e+01  2.381375000e+01  3.455654000e+01  2.858030000e+00 -2.494250000e+00 -2.264460000e+00  4.417849888e+00  4.938880000e-01
-1.825016000e+01  2.460360000e+01  3.575217000e+01  2.669840000e+00 -2.260400000e+00 -2.068830000e+00  4.064174129e+00  4.399670000e-01
-1.598860000e+01  2.540137000e+01  3.689024000e+01  2.472400000e+00 -1.984630000e+00 -1.832760000e+00  3.662038669e+00  3.823620000e-01
-1.366553000e+01  2.618000000e+01  3.795981000e+01  2.279470000e+00 -1.684000000e+00 -1.567190000e+00  3.238506442e+00  3.257050000e-01
-1.127264000e+01  2.691563000e+01  3.894680000e+01  2.105360000e+00 -1.375370000e+00 -1.285200000e+00  2.824167560e+00  2.763770000e-01
-8.807740000e+00  2.758798000e+01  3.983439000e+01  1.958260000e+00 -1.074020000e+00 -1.001610000e+00  2.447758930e+00  2.414430000e-01
-6.272790000e+00  2.817665800e+01  4.061360000e+01  1.842910000e+00 -7.913420000e-01 -7.284000000e-01  2.133800832e+00  2.248270000e-01
-3.673970000e+00  2.865539700e+01  4.128826300e+01  1.757930000e+00 -5.346030000e-01 -4.757370000e-01  1.898010523e+00  2.234090000e-01
-1.024970000e+00  2.900226900e+01  4.188291200e+01  1.697530000e+00 -3.077310000e-01 -2.510880000e-01  1.743373641e+00  2.300180000e-01
-2.522988000e+01  2.308910000e+01  2.901833000e+01  3.937120000e+00 -3.833900000e+00 -3.148670000e+00  6.333547653e+00  7.739910000e-01
-2.343027000e+01  2.368670000e+01  3.031948000e+01  3.788730000e+00 -3.700300000e+00 -3.083520000e+00  6.128196365e+00  7.273170000e-01
-2.146517000e+01  2.442527000e+01  3.152156000e+01  3.617830000e+00 -3.538730000e+00 -2.982440000e+00  5.874202267e+00  6.793240000e-01
-1.941290000e+01  2.526305000e+01  3.266950000e+01  3.409100000e+00 -3.312950000e+00 -2.829500000e+00  5.532058456e+00  6.230900000e-01
-1.730590000e+01  2.615484000e+01  3.377928000e+01  3.168100000e+00 -3.017160000e+00 -2.622720000e+00  5.100859954e+00  5.572340000e-01
-1.515118000e+01  2.706257000e+01  3.485017000e+01  2.908820000e+00 -2.667430000e+00 -2.366830000e+00  4.601988792e+00  4.843350000e-01
-1.293626000e+01  2.795305000e+01  3.587130000e+01  2.653740000e+00 -2.284950000e+00 -2.072700000e+00  4.069326453e+00  4.089960000e-01
-1.065568000e+01  2.879681000e+01  3.682474000e+01  2.418320000e+00 -1.892190000e+00 -1.756260000e+00  3.537386579e+00  3.370740000e-01
-8.299100000e+00  2.957164000e+01  3.769619000e+01  2.216900000e+00 -1.507360000e+00 -1.431810000e+00  3.039220238e+00  2.756210000e-01
-5.869280000e+00  3.025422000e+01  3.847162000e+01  2.054520000e+00 -1.144780000e+00 -1.115380000e+00  2.603007150e+00  2.328090000e-01
-3.370350000e+00  3.082318700e+01  3.915308000e+01  1.931650000e+00 -8.138130000e-01 -8.179200000e-01  2.250012544e+00  2.133930000e-01
-8.156900000e-01  3.126275500e+01  3.976107300e+01  1.841810000e+00 -5.192450000e-01 -5.499270000e-01  1.991054784e+00  2.129720000e-01
-2.410883000e+01  2.401750000e+01  2.750688000e+01  4.542170000e+00 -4.772500000e+00 -3.629120000e+00  7.521873206e+00  9.241820000e-01
-2.239919000e+01  2.467367000e+01  2.856744000e+01  4.414810000e+00 -4.673330000e+00 -3.596560000e+00  7.366532730e+00  8.825630000e-01
-2.049508000e+01  2.549305000e+01  2.961033000e+01  4.236920000e+00 -4.509950000e+00 -3.512670000e+00  7.115475432e+00  8.332020000e-01
-1.850879000e+01  2.643518000e+01  3.064097000e+01  3.995210000e+00 -4.243820000e+00 -3.368030000e+00  6.731666749e+00  7.692870000e-01
-1.648582000e+01  2.744794000e+01  3.166271000e+01  3.697180000e+00 -3.882060000e+00 -3.157290000e+00  6.221576162e+00  6.908220000e-01
-1.442138000e+01  2.848322000e+01  3.266583000e+01  3.373620000e+00 -3.449780000e+00 -2.887170000e+00  5.622992492e+00  6.022520000e-01
-1.230737000e+01  2.950125000e+01  3.363494000e+01  3.046630000e+00 -2.977750000e+00 -2.571060000e+00  4.975871677e+00  5.097150000e-01
-1.012277000e+01  3.046830000e+01  3.455669000e+01  2.745230000e+00 -2.491700000e+00 -2.222310000e+00  4.322443566e+00  4.186740000e-01
-7.862490000e+00  3.135834000e+01  3.540778000e+01  2.482510000e+00 -2.014660000e+00 -1.862220000e+00  3.699942451e+00  3.349810000e-01
-5.520880000e+00  3.214822000e+01  3.617681000e+01  2.268820000e+00 -1.563780000e+00 -1.505190000e+00  3.139832642e+00  2.657830000e-01
-3.104940000e+00  3.281678000e+01  3.686177000e+01  2.103860000e+00 -1.150220000e+00 -1.167230000e+00  2.666769360e+00  2.199750000e-01
-6.285400000e-01  3.335725000e+01  3.748027300e+01  1.980860000e+00 -7.807500000e-01 -8.597270000e-01  2.296194116e+00  2.021190000e-01
-3.210800000e-01  3.703779000e+01  3.252804000e+01  2.243120000e+00 -1.396210000e+00 -1.428960000e+00  3.003816968e+00  2.160800000e-01
-2.496500000e-01  3.869011000e+01  2.991778000e+01  2.353850000e+00 -1.711890000e+00 -1.665220000e+00  3.353227526e+00  2.361430000e-01
-2.116600000e-01  4.023131000e+01  2.724209000e+01  2.446740000e+00 -1.995690000e+00 -1.846910000e+00  3.657921780e+00  2.561240000e-01
-2.031500000e-01  4.168231000e+01  2.452093000e+01  2.516350000e+00 -2.219690000e+00 -1.967070000e+00  3.889525087e+00  2.704170000e-01
-2.225800000e-01  4.305919000e+01  2.176480000e+01  2.558820000e+00 -2.361810000e+00 -2.025200000e+00  4.028292605e+00  2.760080000e-01
-2.680500000e-01  4.437087000e+01  1.897723000e+01  2.572850000e+00 -2.408130000e+00 -2.027770000e+00  4.065771562e+00  2.719250000e-01
-3.365900000e-01  4.561433000e+01  1.615870000e+01  2.559710000e+00 -2.354670000e+00 -1.986300000e+00  4.005243286e+00  2.586560000e-01
-4.242200000e-01  4.678094000e+01  1.330269000e+01  2.522680000e+00 -2.207060000e+00 -1.916310000e+00  3.860993686e+00  2.379160000e-01
-5.259500000e-01  4.785284000e+01  1.040503000e+01  2.466450000e+00 -1.979160000e+00 -1.833970000e+00  3.655666269e+00  2.127390000e-01
-6.366700000e-01  4.880726000e+01  7.462020000e+00  2.395730000e+00 -1.690740000e+00 -1.754780000e+00  3.417217703e+00  1.876750000e-01
-7.517700000e-01  4.962320000e+01  4.472500000e+00  2.314730000e+00 -1.364800000e+00 -1.690100000e+00  3.174443577e+00  1.685770000e-01
-8.713100000e-01  5.029513000e+01  1.441440000e+00  2.223490000e+00 -1.024870000e+00 -1.645660000e+00  2.949993751e+00  1.602800000e-01
-2.688210000e+00  3.624956000e+01  3.188811000e+01  2.449890000e+00 -1.932440000e+00 -1.793890000e+00  3.599211955e+00  2.822830000e-01
-2.613600000e+00  3.778490000e+01  2.927203000e+01  2.603000000e+00 -2.336100000e+00 -2.055970000e+00  4.057090688e+00  3.205690000e-01
-2.590680000e+00  3.921851000e+01  2.659741000e+01  2.734520000e+00 -2.701490000e+00 -2.255590000e+00  4.456830050e+00  3.530440000e-01
-2.612570000e+00  4.057962000e+01  2.388791000e+01  2.833630000e+00 -2.993380000e+00 -2.382090000e+00  4.760686460e+00  3.749130000e-01
-2.676600000e+00  4.189183000e+01  2.115659000e+01  2.892300000e+00 -3.182170000e+00 -2.433410000e+00  4.940960375e+00  3.838290000e-01
-2.779940000e+00  4.316717000e+01  1.840936000e+01  2.906660000e+00 -3.249830000e+00 -2.414640000e+00  4.984029867e+00  3.791440000e-01
-2.918070000e+00  4.440813000e+01  1.564510000e+01  2.878130000e+00 -3.190870000e+00 -2.338900000e+00  4.892416260e+00  3.614490000e-01
-3.083460000e+00  4.560072000e+01  1.285734000e+01  2.812440000e+00 -3.012280000e+00 -2.223660000e+00  4.682767702e+00  3.324080000e-01
-3.266880000e+00  4.672530000e+01  1.003481000e+01  2.717920000e+00 -2.731700000e+00 -2.090190000e+00  4.383853129e+00  2.947430000e-01
-3.458580000e+00  4.775391000e+01  7.171510000e+00  2.603720000e+00 -2.374090000e+00 -1.957790000e+00  4.030955575e+00  2.524560000e-01
-3.650950000e+00  4.866092000e+01  4.260720000e+00  2.476850000e+00 -1.968080000e+00 -1.842780000e+00  3.661142300e+00  2.109700000e-01
-3.840920000e+00  4.944523000e+01  1.305300000e+00  2.340180000e+00 -1.542770000e+00 -1.752400000e+00  3.305675039e+00  1.770040000e-01
-4.984540000e+00  3.532402000e+01  3.118722000e+01  2.720760000e+00 -2.533980000e+00 -2.192780000e+00  4.316465423e+00  3.737710000e-01
-4.893880000e+00  3.672848000e+01  2.856540000e+01  2.930620000e+00 -3.036520000e+00 -2.483600000e+00  4.896657662e+00  4.270470000e-01
-4.871160000e+00  3.803620000e+01  2.589081000e+01  3.115340000e+00 -3.494800000e+00 -2.703190000e+00  5.406126759e+00  4.702660000e-01
-4.910020000e+00  3.929069000e+01  2.319061000e+01  3.256680000e+00 -3.862310000e+00 -2.839390000e+00  5.795303161e+00  4.989040000e-01
-5.009450000e+00  4.052516000e+01  2.048517000e+01  3.339450000e+00 -4.102840000e+00 -2.885830000e+00  6.026046561e+00  5.107410000e-01
-5.167510000e+00  4.175750000e+01  1.778030000e+01  3.356390000e+00 -4.192500000e+00 -2.846700000e+00  6.078331265e+00  5.054190000e-01
-5.377560000e+00  4.299052000e+01  1.507625000e+01  3.308740000e+00 -4.124480000e+00 -2.733750000e+00  5.952519191e+00  4.836780000e-01
-5.627660000e+00  4.420973000e+01  1.236222000e+01  3.205740000e+00 -3.908270000e+00 -2.568780000e+00  5.670094711e+00  4.470660000e-01
-5.902610000e+00  4.538874000e+01  9.626280000e+00  3.061290000e+00 -3.566260000e+00 -2.375720000e+00  5.266284494e+00  3.982660000e-01
-6.186470000e+00  4.649438000e+01  6.853280000e+00  2.890330000e+00 -3.129620000e+00 -2.182020000e+00  4.786412031e+00  3.411920000e-01
-6.466150000e+00  4.749593000e+01  4.032750000e+00  2.704950000e+00 -2.634070000e+00 -2.007550000e+00  4.276135670e+00  2.808580000e-01
-6.735620000e+00  4.838583000e+01  1.162590000e+00  2.511380000e+00 -2.114170000e+00 -1.863610000e+00  3.774888942e+00  2.231690000e-01
-7.190010000e+00  3.425826000e+01  3.041825000e+01  3.064990000e+00 -3.189740000e+00 -2.610750000e+00  5.136596201e+00  4.820210000e-01
-7.067040000e+00  3.551302000e+01  2.779415000e+01  3.348960000e+00 -3.801980000e+00 -2.929850000e+00  5.852743461e+00  5.498260000e-01
-7.025850000e+00  3.667857000e+01  2.511817000e+01  3.605150000e+00 -4.360430000e+00 -3.173830000e+00  6.487191471e+00  6.040830000e-01
-7.065850000e+00  3.781075000e+01  2.242696000e+01  3.804150000e+00 -4.811250000e+00 -3.324040000e+00  6.976311755e+00  6.396340000e-01
-7.188660000e+00  3.895609000e+01  1.974259000e+01  3.921340000e+00 -5.104910000e+00 -3.372410000e+00  7.267060115e+00  6.542360000e-01
-7.398760000e+00  4.013860000e+01  1.708040000e+01  3.942240000e+00 -5.213400000e+00 -3.316600000e+00  7.329435949e+00  6.478340000e-01
-7.684720000e+00  4.136252000e+01  1.443823000e+01  3.869280000e+00 -5.129480000e+00 -3.168770000e+00  7.164076779e+00  6.213800000e-01
-8.030190000e+00  4.260935000e+01  1.180913000e+01  3.716810000e+00 -4.865650000e+00 -2.948870000e+00  6.795959151e+00  5.766520000e-01
-8.409430000e+00  4.384652000e+01  9.170320000e+00  3.507570000e+00 -4.451480000e+00 -2.691680000e+00  6.274062696e+00  5.163790000e-01
-8.800000000e+00  4.503434000e+01  6.501120000e+00  3.264000000e+00 -3.926660000e+00 -2.426880000e+00  5.653503453e+00  4.448820000e-01
-9.178200000e+00  4.613194000e+01  3.782630000e+00  3.005800000e+00 -3.333060000e+00 -2.185670000e+00  4.992121388e+00  3.674270000e-01
-9.539020000e+00  4.712620000e+01  1.009450000e+00  2.741980000e+00 -2.712800000e+00 -1.980950000e+00  4.336115896e+00  2.899780000e-01
-9.298160000e+00  3.306924000e+01  2.959321000e+01  3.481840000e+00 -3.884760000e+00 -3.025790000e+00  6.030752454e+00  6.022260000e-01
-9.125360000e+00  3.415705000e+01  2.696695000e+01  3.857640000e+00 -4.611950000e+00 -3.376050000e+00  6.895591546e+00  6.862450000e-01
-9.043080000e+00  3.515943000e+01  2.429522000e+01  4.206920000e+00 -5.281570000e+00 -3.643780000e+00  7.672697716e+00  7.529140000e-01
-9.060910000e+00  3.615776000e+01  2.160724000e+01  4.484090000e+00 -5.815240000e+00 -3.817760000e+00  8.276434667e+00  7.964320000e-01
-9.196670000e+00  3.720493000e+01  1.893922000e+01  4.646330000e+00 -6.161070000e+00 -3.877780000e+00  8.636222771e+00  8.138280000e-01
-9.454520000e+00  3.833560000e+01  1.631243000e+01  4.672480000e+00 -6.281400000e+00 -3.816570000e+00  8.709435221e+00  8.053110000e-01
-9.826850000e+00  3.955344000e+01  1.373595000e+01  4.562150000e+00 -6.168560000e+00 -3.636050000e+00  8.490300625e+00  7.724550000e-01
-1.028307000e+01  4.083285000e+01  1.119343000e+01  4.342930000e+00 -5.844150000e+00 -3.364570000e+00  8.020938941e+00  7.171860000e-01
-1.078416000e+01  4.213347000e+01  8.667160000e+00  4.048840000e+00 -5.346530000e+00 -3.031840000e+00  7.360064006e+00  6.436340000e-01
-1.129344000e+01  4.340600000e+01  6.113100000e+00  3.717560000e+00 -4.723000000e+00 -2.691300000e+00  6.585596180e+00  5.566530000e-01
-1.178489000e+01  4.459980000e+01  3.511420000e+00  3.371110000e+00 -4.027200000e+00 -2.374080000e+00  5.763590749e+00  4.621510000e-01
-1.224431000e+01  4.569604000e+01  8.456000000e-01  3.026690000e+00 -3.303960000e+00 -2.103500000e+00  4.949920837e+00  3.667760000e-01
-1.131801000e+01  3.178149000e+01  2.872322000e+01  3.954990000e+00 -4.594510000e+00 -3.421780000e+00  6.961325047e+00  7.309890000e-01
-1.107114000e+01  3.268126000e+01  2.611484000e+01  4.445860000e+00 -5.448740000e+00 -3.789160000e+00  7.988252139e+00  8.354540000e-01
-1.092482000e+01  3.351060000e+01  2.344027000e+01  4.910180000e+00 -6.226400000e+00 -4.090730000e+00  8.922555493e+00  9.215480000e-01
-1.089225000e+01  3.435123000e+01  2.075670000e+01  5.291750000e+00 -6.856770000e+00 -4.291300000e+00  9.666083415e+00  9.781220000e-01
-1.101411000e+01  3.530002000e+01  1.808993000e+01  5.521890000e+00 -7.243980000e+00 -4.383070000e+00  1.010830441e+01  1.002570000e+00
-1.132567000e+01  3.638841000e+01  1.548316000e+01  5.545330000e+00 -7.355590000e+00 -4.337840000e+00  1.018195683e+01  9.912820000e-01
-1.180286000e+01  3.760888000e+01  1.295910000e+01  5.377140000e+00 -7.197120000e+00 -4.142900000e+00  9.893219460e+00  9.430430000e-01
-1.240005000e+01  3.893029000e+01  1.052553000e+01  5.056950000e+00 -6.794710000e+00 -3.803470000e+00  9.284783860e+00  8.686340000e-01
-1.303947000e+01  4.030382000e+01  8.115540000e+00  4.660530000e+00 -6.197180000e+00 -3.396460000e+00  8.465312774e+00  7.756270000e-01
-1.368484000e+01  4.165955000e+01  5.698820000e+00  4.221160000e+00 -5.470450000e+00 -2.964480000e+00  7.518786911e+00  6.693710000e-01
-1.429420000e+01  4.294782000e+01  3.223480000e+00  3.779800000e+00 -4.669180000e+00 -2.567620000e+00  6.533054598e+00  5.574240000e-01
-1.485966000e+01  4.413720000e+01  6.751200000e-01  3.346340000e+00 -3.847800000e+00 -2.226780000e+00  5.564360287e+00  4.452610000e-01
-1.325919000e+01  3.042506000e+01  2.784483000e+01  4.466810000e+00 -5.293940000e+00 -3.762170000e+00  7.882392746e+00  8.665730000e-01
-1.293934000e+01  3.112665000e+01  2.525063000e+01  5.070660000e+00 -6.272350000e+00 -4.155370000e+00  9.073095789e+00  1.000110000e+00
-1.267895000e+01  3.173880000e+01  2.260823000e+01  5.698050000e+00 -7.192200000e+00 -4.459770000e+00  1.020220874e+01  1.128120000e+00
-1.256208000e+01  3.243840000e+01  1.989906000e+01  6.215920000e+00 -7.890600000e+00 -4.720940000e+00  1.109894158e+01  1.232380000e+00
-1.263168000e+01  3.328418000e+01  1.720526000e+01  6.548320000e+00 -8.313820000e+00 -4.877740000e+00  1.165300156e+01  1.277430000e+00
-1.297860000e+01  3.434142000e+01  1.458422000e+01  6.584400000e+00 -8.395580000e+00 -4.886780000e+00  1.173544655e+01  1.253670000e+00
-1.364833000e+01  3.558637000e+01  1.212255000e+01  6.266670000e+00 -8.159630000e+00 -4.673450000e+00  1.130008184e+01  1.166470000e+00
-1.441130000e+01  3.697008000e+01  9.785960000e+00  5.818700000e+00 -7.651920000e+00 -4.284040000e+00  1.052435975e+01  1.039980000e+00
-1.522846000e+01  3.841637000e+01  7.539860000e+00  5.277540000e+00 -6.946630000e+00 -3.762140000e+00  9.500620726e+00  9.072730000e-01
-1.600525000e+01  3.985871000e+01  5.267910000e+00  4.732750000e+00 -6.108290000e+00 -3.236490000e+00  8.377648644e+00  7.762900000e-01
-1.673706000e+01  4.122841000e+01  2.931820000e+00  4.189940000e+00 -5.209590000e+00 -2.752880000e+00  7.230060405e+00  6.456660000e-01
-1.740291000e+01  4.249580000e+01  5.060300000e-01  3.672090000e+00 -4.300200000e+00 -2.342670000e+00  6.120789797e+00  5.179100000e-01
-1.518239000e+01  2.904572000e+01  2.696649000e+01  4.950610000e+00 -5.940280000e+00 -4.040510000e+00  8.724745665e+00  1.002580000e+00
-1.474295000e+01  2.950984000e+01  2.444345000e+01  5.712050000e+00 -7.071160000e+00 -4.405550000e+00  1.010137069e+01  1.198020000e+00
-1.439699000e+01  2.991168000e+01  2.179924000e+01  6.471010000e+00 -8.115320000e+00 -4.750760000e+00  1.141499495e+01  1.435110000e+00
-1.400414000e+01  3.034151000e+01  1.910950000e+01  7.312860000e+00 -8.999490000e+00 -5.033500000e+00  1.264139486e+01  1.631870000e+00
-1.395880000e+01  3.106827000e+01  1.626934000e+01  7.807200000e+00 -9.462730000e+00 -5.378660000e+00  1.339498467e+01  1.691710000e+00
-1.445476000e+01  3.215009000e+01  1.352545000e+01  7.737240000e+00 -9.450910000e+00 -5.555550000e+00  1.341822337e+01  1.634770000e+00
-1.536078000e+01  3.353773000e+01  1.111703000e+01  7.223220000e+00 -9.010270000e+00 -5.337970000e+00  1.272217734e+01  1.480630000e+00
-1.644353000e+01  3.501451000e+01  9.017740000e+00  6.491470000e+00 -8.358490000e+00 -4.763260000e+00  1.160569617e+01  1.252150000e+00
-1.740635000e+01  3.655336000e+01  6.947870000e+00  5.832650000e+00 -7.518640000e+00 -4.121130000e+00  1.036983442e+01  1.037660000e+00
-1.832190000e+01  3.806655000e+01  4.851510000e+00  5.175100000e+00 -6.578450000e+00 -3.476590000e+00  9.063351612e+00  8.692280000e-01
-1.915085000e+01  3.949797000e+01  2.656880000e+00  4.554150000e+00 -5.596030000e+00 -2.909820000e+00  7.779645648e+00  7.190930000e-01
-1.990355000e+01  4.082021000e+01  3.513700000e-01  3.963450000e+00 -4.618790000e+00 -2.438330000e+00  6.556493739e+00  5.781680000e-01
-1.709632000e+01  2.769423000e+01  2.612605000e+01  5.385680000e+00 -6.488770000e+00 -4.222950000e+00  9.430959224e+00  1.134100000e+00
-1.664641000e+01  2.792707000e+01  2.367462000e+01  6.195590000e+00 -7.751930000e+00 -4.564380000e+00  1.092297208e+01  1.421130000e+00
-1.605075000e+01  2.787948000e+01  2.120423000e+01  7.247250000e+00 -9.146520000e+00 -4.780770000e+00  1.261099609e+01  1.791900000e+00
-1.558956000e+01  2.801440000e+01  1.828697000e+01  8.202440000e+00 -1.023160000e+01 -5.334030000e+00  1.415689007e+01  1.995150000e+00
-1.568394000e+01  2.857700000e+01  1.524556000e+01  8.600060000e+00 -1.077100000e+01 -5.927440000e+00  1.500366682e+01  1.962130000e+00
-1.629345000e+01  2.972890000e+01  1.244654000e+01  8.456550000e+00 -1.060910000e+01 -6.210460000e+00  1.492099374e+01  1.882940000e+00
-1.731761000e+01  3.139786000e+01  1.006957000e+01  7.860390000e+00 -9.818140000e+00 -6.015430000e+00  1.394155666e+01  1.748930000e+00
-1.859387000e+01  3.314537000e+01  8.187600000e+00  6.965130000e+00 -8.836630000e+00 -5.280400000e+00  1.242906633e+01  1.464840000e+00
-1.970506000e+01  3.478591000e+01  6.423410000e+00  6.185940000e+00 -7.846090000e+00 -4.392590000e+00  1.091429470e+01  1.151070000e+00
-2.068393000e+01  3.634489000e+01  4.496210000e+00  5.486070000e+00 -6.823110000e+00 -3.641090000e+00  9.482053074e+00  9.374030000e-01
-2.157944000e+01  3.780842000e+01  2.428060000e+00  4.815560000e+00 -5.782580000e+00 -3.011140000e+00  8.105233721e+00  7.713990000e-01
-2.239167000e+01  3.915119000e+01  2.284200000e-01  4.180330000e+00 -4.767810000e+00 -2.497580000e+00  6.815062506e+00  6.208180000e-01
-1.908837000e+01  2.645635000e+01  2.534337000e+01  5.659630000e+00 -6.856650000e+00 -4.308630000e+00  9.879744604e+00  1.248380000e+00
-1.863778000e+01  2.638885000e+01  2.304097000e+01  6.511220000e+00 -8.303150000e+00 -4.561030000e+00  1.149527209e+01  1.606770000e+00
-1.812302000e+01  2.603940000e+01  2.053349000e+01  7.526980000e+00 -9.886600000e+00 -4.865510000e+00  1.334441737e+01  2.034420000e+00
-1.779987000e+01  2.587460000e+01  1.751486000e+01  8.387130000e+00 -1.116640000e+01 -5.570140000e+00  1.503525518e+01  2.188360000e+00
-1.804400000e+01  2.651280000e+01  1.444649000e+01  8.676000000e+00 -1.153520000e+01 -6.240510000e+00  1.572506852e+01  2.083080000e+00
-1.876648000e+01  2.772030000e+01  1.169196000e+01  8.456520000e+00 -1.123170000e+01 -6.532040000e+00  1.550262436e+01  2.008850000e+00
-1.982838000e+01  2.948620000e+01  9.373690000e+00  7.855620000e+00 -1.026780000e+01 -6.334310000e+00  1.439659563e+01  1.901160000e+00
-2.107582000e+01  3.146131000e+01  7.646230000e+00  7.019180000e+00 -8.992690000e+00 -5.504770000e+00  1.266648547e+01  1.588290000e+00
-2.216036000e+01  3.318006000e+01  6.083510000e+00  6.290640000e+00 -7.870940000e+00 -4.477490000e+00  1.102595868e+01  1.213870000e+00
-2.313964000e+01  3.474532000e+01  4.262990000e+00  5.610360000e+00 -6.799680000e+00 -3.682510000e+00  9.553672976e+00  9.735960000e-01
-2.405424000e+01  3.619570000e+01  2.281540000e+00  4.936760000e+00 -5.740300000e+00 -3.030460000e+00  8.155141397e+00  7.982490000e-01
-2.489318000e+01  3.751622000e+01  1.569500000e-01  4.286820000e+00 -4.725780000e+00 -2.506350000e+00  6.855042862e+00  6.420570000e-01
-2.112574000e+01  2.541489000e+01  2.465604000e+01  5.741260000e+00 -6.959110000e+00 -4.319960000e+00  1.000266628e+01  1.308400000e+00
-2.082902000e+01  2.519277000e+01  2.248457000e+01  6.491980000e+00 -8.407230000e+00 -4.529430000e+00  1.154742641e+01  1.680220000e+00
-2.062269000e+01  2.472186000e+01  1.999505000e+01  7.255310000e+00 -9.980140000e+00 -4.879950000e+00  1.326863330e+01  2.118940000e+00
-2.058742000e+01  2.446770000e+01  1.708505000e+01  7.879580000e+00 -1.123530000e+01 -5.527950000e+00  1.479452528e+01  2.313290000e+00
-2.096367000e+01  2.498120000e+01  1.407637000e+01  8.082330000e+00 -1.162980000e+01 -6.187630000e+00  1.545519561e+01  2.261810000e+00
-2.175763000e+01  2.630250000e+01  1.139631000e+01  7.832370000e+00 -1.112550000e+01 -6.452690000e+00  1.505855167e+01  2.163790000e+00
-2.279514000e+01  2.814130000e+01  9.264440000e+00  7.289860000e+00 -1.001170000e+01 -6.119560000e+00  1.381394984e+01  1.945870000e+00
-2.377695000e+01  3.009023000e+01  7.641040000e+00  6.748050000e+00 -8.696770000e+00 -5.237960000e+00  1.219041477e+01  1.568260000e+00
-2.474068000e+01  3.176600000e+01  6.014610000e+00  6.164320000e+00 -7.562000000e+00 -4.328390000e+00  1.067322093e+01  1.206470000e+00
-2.567898000e+01  3.328038000e+01  4.206580000e+00  5.544020000e+00 -6.495620000e+00 -3.577220000e+00  9.258819572e+00  9.734210000e-01
-2.657859000e+01  3.466556000e+01  2.247300000e+00  4.900410000e+00 -5.467440000e+00 -2.958700000e+00  7.915859019e+00  7.963000000e-01
-2.741693000e+01  3.592143000e+01  1.537800000e-01  4.262070000e+00 -4.491570000e+00 -2.457520000e+00  6.661744989e+00  6.390940000e-01
-2.308227000e+01  2.463213000e+01  2.418646000e+01  5.641730000e+00 -6.725870000e+00 -4.263540000e+00  9.759314422e+00  1.290600000e+00
-2.306844000e+01  2.450020000e+01  2.210648000e+01  6.207560000e+00 -7.863800000e+00 -4.500520000e+00  1.098307024e+01  1.591030000e+00
-2.326551000e+01  2.406088000e+01  1.983234000e+01  6.655490000e+00 -9.250120000e+00 -4.702660000e+00  1.232782537e+01  1.972320000e+00
-2.357262000e+01  2.392380000e+01  1.712970000e+01  7.010380000e+00 -1.027120000e+01 -5.186300000e+00  1.347370346e+01  2.220740000e+00
-2.411498000e+01  2.446900000e+01  1.433522000e+01  7.106020000e+00 -1.053900000e+01 -5.665780000e+00  1.391643289e+01  2.232190000e+00
-2.490553000e+01  2.568830000e+01  1.183395000e+01  6.909470000e+00 -1.005470000e+01 -5.784050000e+00  1.350159258e+01  2.073010000e+00
-2.570344000e+01  2.735130000e+01  9.809580000e+00  6.648560000e+00 -9.045700000e+00 -5.375420000e+00  1.244681400e+01  1.770500000e+00
-2.647923000e+01  2.902491000e+01  8.040450000e+00  6.346770000e+00 -7.944090000e+00 -4.672550000e+00  1.119029843e+01  1.416830000e+00
-2.736296000e+01  3.052086000e+01  6.221140000e+00  5.871040000e+00 -6.936140000e+00 -3.989860000e+00  9.924622492e+00  1.133380000e+00
-2.826139000e+01  3.191834000e+01  4.333760000e+00  5.312610000e+00 -5.941660000e+00 -3.351940000e+00  8.646539789e+00  9.317190000e-01
-2.913492000e+01  3.319085000e+01  2.335640000e+00  4.710080000e+00 -4.990150000e+00 -2.805560000e+00  7.413340512e+00  7.629040000e-01
-2.996036000e+01  3.434857000e+01  2.232500000e-01  4.099640000e+00 -4.086430000e+00 -2.355850000e+00  6.249478978e+00  6.102660000e-01
-3.501531000e+01  3.108895000e+01  5.027700000e-01  3.381690000e+00 -2.938050000e+00 -2.055430000e+00  4.928768360e+00  4.837290000e-01
-3.749013000e+01  2.933283000e+01  7.191700000e-01  2.880870000e+00 -2.309170000e+00 -1.875730000e+00  4.141260808e+00  4.002810000e-01
-3.987664000e+01  2.742928000e+01  9.555300000e-01  2.324360000e+00 -1.713720000e+00 -1.693870000e+00  3.347936861e+00  3.191980000e-01
-4.213264000e+01  2.534637000e+01  1.195630000e+00  1.748360000e+00 -1.192630000e+00 -1.515670000e+00  2.603148969e+00  2.582670000e-01
-4.421191000e+01  2.306599900e+01  1.431070000e+00  1.193090000e+00 -7.710010000e-01 -1.342730000e+00  1.954694386e+00  2.318790000e-01
-4.607053500e+01  2.059110500e+01  1.658180000e+00  6.954650000e-01 -4.578950000e-01 -1.175120000e+00  1.440224431e+00  2.353510000e-01
-4.767420900e+01  1.793738000e+01  1.877840000e+00  2.857910000e-01 -2.466200000e-01 -1.010660000e+00  1.078856596e+00  2.508780000e-01
-4.899742570e+01  1.513312900e+01  2.090962000e+00 -1.642570000e-02 -1.198710000e-01 -8.475380000e-01  8.561305518e-01  2.655890000e-01
-5.003067900e+01  1.221395810e+01  2.299482000e+00 -2.036790000e-01 -5.404190000e-02 -6.837180000e-01  7.154550758e-01  2.744640000e-01
-5.077471200e+01  9.214595100e+00  2.504857000e+00 -2.797120000e-01 -2.440490000e-02 -5.177430000e-01  5.889755650e-01  2.784430000e-01
-5.124698200e+01  6.169827260e+00  2.709173000e+00 -2.599820000e-01 -8.172740000e-03 -3.478270000e-01  4.343282813e-01  2.809460000e-01
-5.147985900e+01  3.099242420e+00  2.913425000e+00 -1.588590000e-01  4.242420000e-03 -1.745750000e-01  2.360733162e-01  2.888210000e-01
-3.421919000e+01  3.016502000e+01  2.741040000e+00  3.902810000e+00 -3.630980000e+00 -2.374060000e+00  5.835417940e+00  6.110540000e-01
-3.671625000e+01  2.854416000e+01  3.067680000e+00  3.353750000e+00 -2.882840000e+00 -2.124020000e+00  4.906105022e+00  5.095780000e-01
-3.913674000e+01  2.677321000e+01  3.425360000e+00  2.741260000e+00 -2.169790000e+00 -1.875840000e+00  3.967527030e+00  4.059190000e-01
-4.143537000e+01  2.481600000e+01  3.787800000e+00  2.103630000e+00 -1.538000000e+00 -1.636900000e+00  3.077360035e+00  3.155910000e-01
-4.356575000e+01  2.264919000e+01  4.137210000e+00  1.481250000e+00 -1.018810000e+00 -1.411790000e+00  2.285875408e+00  2.580300000e-01
-4.548108700e+01  2.027135200e+01  4.466320000e+00  9.159130000e-01 -6.246480000e-01 -1.200980000e+00  1.634452418e+00  2.410230000e-01
-4.714229000e+01  1.769833300e+01  4.772370000e+00  4.417100000e-01 -3.506670000e-01 -1.004130000e+00  1.151673620e+00  2.495100000e-01
-4.852059590e+01  1.495844300e+01  5.056032000e+00  8.240410000e-02 -1.785570000e-01 -8.192680000e-01  8.425396690e-01  2.638470000e-01
-4.960258000e+01  1.208942890e+01  5.318798000e+00 -1.515800000e-01 -8.257110000e-02 -6.443020000e-01  6.670229008e-01  2.741660000e-01
-5.038603300e+01  9.131066600e+00  5.563102000e+00 -2.620330000e-01 -3.483340000e-02 -4.766980000e-01  5.450831515e-01  2.788620000e-01
-5.089264300e+01  6.119237530e+00  5.793078000e+00 -2.636430000e-01 -9.462470000e-03 -3.134220000e-01  4.096712339e-01  2.797080000e-01
-5.115945500e+01  3.074442390e+00  6.012169000e+00 -1.704550000e-01  4.042390000e-03 -1.542310000e-01  2.299096547e-01  2.850060000e-01
-3.337408000e+01  2.916406000e+01  4.915370000e+00  4.412920000e+00 -4.352940000e+00 -2.746130000e+00  6.779615000e+00  7.457780000e-01
-3.588841000e+01  2.769144000e+01  5.365640000e+00  3.816590000e+00 -3.477560000e+00 -2.414660000e+00  5.700032079e+00  6.247530000e-01
-3.832772000e+01  2.606512000e+01  5.854880000e+00  3.154280000e+00 -2.638880000e+00 -2.090220000e+00  4.613262362e+00  4.998670000e-01
-4.065519000e+01  2.424001000e+01  6.345260000e+00  2.458810000e+00 -1.891990000e+00 -1.784340000e+00  3.579000141e+00  3.849810000e-01
-4.282344000e+01  2.219292000e+01  6.815190000e+00  1.774560000e+00 -1.272080000e+00 -1.499710000e+00  2.648845183e+00  2.978150000e-01
-4.478286000e+01  1.991922200e+01  7.251110000e+00  1.145140000e+00 -7.947780000e-01 -1.239690000e+00  1.865435334e+00  2.547870000e-01
-4.648974000e+01  1.743156900e+01  7.648370000e+00  6.092600000e-01 -4.564310000e-01 -1.004430000e+00  1.260320051e+00  2.501560000e-01
-4.791393500e+01  1.476110200e+01  8.005873000e+00  1.940650000e-01 -2.378980000e-01 -7.930270000e-01  8.503813882e-01  2.610740000e-01
-4.903693320e+01  1.194801300e+01  8.324911000e+00 -8.693320000e-02 -1.109870000e-01 -6.031890000e-01  6.194452883e-01  2.715060000e-01
-4.985655800e+01  9.034345200e+00  8.608558000e+00 -2.335580000e-01 -4.485480000e-02 -4.318420000e-01  4.929998026e-01  2.765200000e-01
-5.039238900e+01  6.059919900e+00  8.862609000e+00 -2.593890000e-01 -1.038010000e-02 -2.746910000e-01  3.779491305e-01  2.758650000e-01
-5.068211400e+01  3.045503140e+00  9.093537000e+00 -1.781140000e-01  4.203140000e-03 -1.304630000e-01  2.208231368e-01  2.785960000e-01
-3.250245000e+01  2.809038000e+01  7.032750000e+00  4.874550000e+00 -5.084620000e+00 -3.159250000e+00  7.719809506e+00  8.858080000e-01
-3.501288000e+01  2.678404000e+01  7.620500000e+00  4.242120000e+00 -4.068960000e+00 -2.732500000e+00  6.482173542e+00  7.402620000e-01
-3.745572000e+01  2.530818000e+01  8.243100000e+00  3.534280000e+00 -3.101820000e+00 -2.329900000e+00  5.247938304e+00  5.940970000e-01
-3.979259000e+01  2.362177000e+01  8.865690000e+00  2.790410000e+00 -2.239230000e+00 -1.951310000e+00  4.075309765e+00  4.580220000e-01
-4.197873000e+01  2.169701000e+01  9.457950000e+00  2.052270000e+00 -1.519990000e+00 -1.604050000e+00  3.015817991e+00  3.460840000e-01
-4.396399000e+01  1.952844400e+01  1.000380000e+01  1.367010000e+00 -9.615560000e-01 -1.290200000e+00  2.111379246e+00  2.770540000e-01
-4.570184200e+01  1.713072500e+01  1.049481000e+01  7.761580000e-01 -5.602750000e-01 -1.012190000e+00  1.393146766e+00  2.548970000e-01
-4.715787500e+01  1.453477600e+01  1.092892400e+01  3.101250000e-01 -2.962240000e-01 -7.700760000e-01  8.814438267e-01  2.591260000e-01
-4.831194900e+01  1.178316800e+01  1.130491500e+01 -1.494900000e-02 -1.388320000e-01 -5.620850000e-01  5.791695296e-01  2.679840000e-01
-4.915990400e+01  8.920184500e+00  1.162823100e+01 -1.969040000e-01 -5.441550000e-02 -3.847690000e-01  4.356367928e-01  2.726770000e-01
-4.971906600e+01  5.989009100e+00  1.190525300e+01 -2.480660000e-01 -1.089090000e-02 -2.327470000e-01  3.403329518e-01  2.706300000e-01
-5.002548600e+01  3.010341600e+00  1.214602100e+01 -1.814860000e-01  4.341600000e-03 -1.039790000e-01  2.092071943e-01  2.704870000e-01
-3.162217000e+01  2.698401000e+01  9.133370000e+00  5.262830000e+00 -5.781990000e+00 -3.566630000e+00  8.593581182e+00  1.027170000e+00
-3.411692000e+01  2.585284000e+01  9.849060000e+00  4.597080000e+00 -4.623160000e+00 -3.054940000e+00  7.199959119e+00  8.506170000e-01
-3.653873000e+01  2.453173000e+01  1.060632000e+01  3.857270000e+00 -3.528270000e+00 -2.570680000e+00  5.825428457e+00  6.823500000e-01
-3.886307000e+01  2.298074000e+01  1.135491000e+01  3.074930000e+00 -2.556260000e+00 -2.124090000e+00  4.527849161e+00  5.273220000e-01
-4.104519000e+01  2.117408000e+01  1.206775000e+01  2.294810000e+00 -1.745920000e+00 -1.714250000e+00  3.354555506e+00  3.958090000e-01
-4.303378000e+01  1.910909000e+01  1.272051000e+01  1.565220000e+00 -1.113910000e+00 -1.346490000e+00  2.346006065e+00  3.046030000e-01
-4.478184100e+01  1.680131700e+01  1.330494000e+01  9.301590000e-01 -6.556830000e-01 -1.024060000e+00  1.530952268e+00  2.640890000e-01
-4.625201800e+01  1.428191300e+01  1.381470200e+01  4.219820000e-01 -3.500870000e-01 -7.492980000e-01  9.284811300e-01  2.591700000e-01
-4.742399300e+01  1.159439200e+01  1.424885000e+01  5.900700000e-02 -1.646080000e-01 -5.211500000e-01  5.497044135e-01  2.648060000e-01
-4.829083700e+01  8.788217600e+00  1.461063000e+01 -1.548370000e-01 -6.308240000e-02 -3.363700000e-01  3.756310193e-01  2.683290000e-01
-4.886761700e+01  5.905854000e+00  1.490925000e+01 -2.306170000e-01 -1.114600000e-02 -1.887500000e-01  2.982197118e-01  2.647580000e-01
-4.918844000e+01  2.969013000e+00  1.515638460e+01 -1.804400000e-01  4.513000000e-03 -7.561540000e-02  1.956952976e-01  2.613060000e-01
-3.077540000e+01  2.589134000e+01  1.124779000e+01  5.537600000e+00 -6.399660000e+00 -3.933210000e+00  9.332245324e+00  1.168070000e+00
-3.322037000e+01  2.494501000e+01  1.209077000e+01  4.860630000e+00 -5.091990000e+00 -3.334230000e+00  7.789170421e+00  9.492800000e-01
-3.559896000e+01  2.377158000e+01  1.296080000e+01  4.101040000e+00 -3.880420000e+00 -2.788200000e+00  6.296844265e+00  7.576990000e-01
-3.788632000e+01  2.234374000e+01  1.382556000e+01  3.292680000e+00 -2.815260000e+00 -2.281440000e+00  4.896161652e+00  5.866850000e-01
-4.003981000e+01  2.064496000e+01  1.464652000e+01  2.484190000e+00 -1.930040000e+00 -1.816480000e+00  3.632609798e+00  4.404400000e-01
-4.200712000e+01  1.867526000e+01  1.540156000e+01  1.724880000e+00 -1.238740000e+00 -1.398440000e+00  2.542699793e+00  3.325010000e-01
-4.374264000e+01  1.645041400e+01  1.607401000e+01  1.059360000e+00 -7.345860000e-01 -1.033990000e+00  1.652572395e+00  2.760360000e-01
-4.520701600e+01  1.400592800e+01  1.665661000e+01  5.209840000e-01 -3.950720000e-01 -7.273900000e-01  9.780605429e-01  2.612590000e-01
-4.638076700e+01  1.138579000e+01  1.714575600e+01  1.292330000e-01 -1.862100000e-01 -4.792440000e-01  5.301416263e-01  2.625310000e-01
-4.725365300e+01  8.638999800e+00  1.754417400e+01 -1.106530000e-01 -7.020020000e-02 -2.868260000e-01  3.153431603e-01  2.640750000e-01
-4.783945500e+01  5.810531400e+00  1.786248800e+01 -2.084550000e-01 -1.106860000e-02 -1.435120000e-01  2.533213277e-01  2.587650000e-01
-4.817016100e+01  2.921258720e+00  1.811482990e+01 -1.751610000e-01  4.658720000e-03 -4.617010000e-02  1.812036361e-01  2.517210000e-01
-2.997344000e+01  2.489437000e+01  1.345117000e+01  5.688560000e+00 -6.856630000e+00 -4.172830000e+00  9.837967272e+00  1.295780000e+00
-3.233913000e+01  2.411963000e+01  1.436941000e+01  5.019870000e+00 -5.417370000e+00 -3.538590000e+00  8.189542827e+00  1.025550000e+00
-3.465260000e+01  2.306877000e+01  1.532826000e+01  4.249400000e+00 -4.118230000e+00 -2.952740000e+00  6.613311742e+00  8.134500000e-01
-3.687988000e+01  2.174228000e+01  1.628741000e+01  3.428120000e+00 -2.987720000e+00 -2.403590000e+00  5.143512654e+00  6.309530000e-01
-3.897863000e+01  2.012988000e+01  1.720363000e+01  2.606370000e+00 -2.053120000e+00 -1.894370000e+00  3.820615658e+00  4.747570000e-01
-4.089917000e+01  1.823880000e+01  1.804831000e+01  1.833830000e+00 -1.323200000e+00 -1.434690000e+00  2.678082543e+00  3.558970000e-01
-4.259609000e+01  1.608787700e+01  1.879987000e+01  1.153910000e+00 -7.891230000e-01 -1.034130000e+00  1.738864070e+00  2.878610000e-01
-4.403337400e+01  1.371322300e+01  1.944717300e+01  5.996260000e-01 -4.267770000e-01 -6.998270000e-01  1.015602175e+00  2.645540000e-01
-4.518849900e+01  1.115941800e+01  1.998569400e+01  1.905010000e-01 -2.015820000e-01 -4.343060000e-01  5.153131430e-01  2.612250000e-01
-4.605454390e+01  8.474050700e+00  2.041719300e+01 -6.754390000e-02 -7.504930000e-02 -2.358070000e-01  2.565141655e-01  2.603150000e-01
-4.664115200e+01  5.703596300e+00  2.075236800e+01 -1.831520000e-01 -1.060370000e-02 -9.763200000e-02  2.078198763e-01  2.530940000e-01
-4.697704700e+01  2.867578270e+00  2.100758040e+01 -1.660470000e-01  4.778270000e-03 -1.641960000e-02  1.669252567e-01  2.424640000e-01
-2.920338000e+01  2.410108000e+01  1.576804000e+01  5.731620000e+00 -7.048920000e+00 -4.253960000e+00  1.003169560e+01  1.372980000e+00
-3.148015000e+01  2.343319000e+01  1.670160000e+01  5.067850000e+00 -5.547810000e+00 -3.642400000e+00  8.350351919e+00  1.068070000e+00
-3.371139000e+01  2.246480000e+01  1.771749000e+01  4.293610000e+00 -4.206200000e+00 -3.045510000e+00  6.738125587e+00  8.445440000e-01
-3.585575000e+01  2.120105000e+01  1.874811000e+01  3.472250000e+00 -3.051950000e+00 -2.472890000e+00  5.242719124e+00  6.560570000e-01
-3.787279000e+01  1.964778000e+01  1.974201000e+01  2.653210000e+00 -2.100220000e+00 -1.933990000e+00  3.897533152e+00  4.950310000e-01
-3.971935000e+01  1.781414000e+01  2.065988000e+01  1.884650000e+00 -1.357860000e+00 -1.444120000e+00  2.735173116e+00  3.709330000e-01
-4.135150000e+01  1.572374100e+01  2.147835000e+01  1.207500000e+00 -8.132590000e-01 -1.016650000e+00  1.775675554e+00  2.966220000e-01
-4.273826500e+01  1.341015600e+01  2.218026700e+01  6.527350000e-01 -4.418440000e-01 -6.617330000e-01  1.029164547e+00  2.676790000e-01
-4.385711000e+01  1.091789500e+01  2.276104400e+01  2.388900000e-01 -2.091050000e-01 -3.839560000e-01  4.982123474e-01  2.605490000e-01
-4.470116500e+01  8.295542000e+00  2.321927700e+01 -2.816500000e-02 -7.705800000e-02 -1.827230000e-01  2.002970227e-01  2.572320000e-01
-4.527824300e+01  5.586255590e+00  2.356744280e+01 -1.562430000e-01 -9.744410000e-03 -5.155720000e-02  1.648180010e-01  2.481400000e-01
-4.561164400e+01  2.808353430e+00  2.382392410e+01 -1.536440000e-01  4.853430000e-03  1.292410000e-02  1.542629796e-01  2.343590000e-01
-2.845947000e+01  2.357169000e+01  1.815080000e+01  5.676530000e+00 -6.925310000e+00 -4.206200000e+00  9.893180979e+00  1.366280000e+00
-3.064742000e+01  2.293312000e+01  1.907521000e+01  5.003580000e+00 -5.447880000e+00 -3.642790000e+00  8.245309472e+00  1.070520000e+00
-3.277487000e+01  2.198372000e+01  2.012159000e+01  4.234130000e+00 -4.132280000e+00 -3.060410000e+00  6.661058791e+00  8.480660000e-01
-3.481104000e+01  2.074171000e+01  2.120565000e+01  3.425960000e+00 -2.999290000e+00 -2.480350000e+00  5.185082309e+00  6.598190000e-01
-3.672268000e+01  1.921501000e+01  2.225730000e+01  2.625320000e+00 -2.066990000e+00 -1.926700000e+00  3.857061790e+00  4.992750000e-01
-3.846939000e+01  1.741651000e+01  2.323272000e+01  1.877610000e+00 -1.339490000e+00 -1.419280000e+00  2.708137458e+00  3.753780000e-01
-4.001444000e+01  1.536801800e+01  2.410298200e+01  1.219560000e+00 -8.049820000e-01 -9.760180000e-01  1.757251761e+00  3.002290000e-01
-4.132881000e+01  1.310606900e+01  2.484843900e+01  6.791900000e-01 -4.389310000e-01 -6.095610000e-01  1.012681634e+00  2.693380000e-01
-4.239206900e+01  1.067093200e+01  2.546154100e+01  2.729310000e-01 -2.080680000e-01 -3.264590000e-01  4.736656015e-01  2.600130000e-01
-4.319898784e+01  8.109506400e+00  2.594077000e+01  6.012160000e-03 -7.599360000e-02 -1.272300000e-01  1.483194060e-01  2.548850000e-01
-4.375590000e+01  5.462365090e+00  2.629724538e+01 -1.289000000e-01 -8.534910000e-03 -5.754620000e-03  1.293103644e-01  2.442840000e-01
-4.408255800e+01  2.745923080e+00  2.655218620e+01 -1.385580000e-01  4.923080000e-03  4.118620000e-02  1.446335340e-01  2.282600000e-01
-2.775018000e+01  2.332001000e+01  2.052282000e+01  5.515820000e+00 -6.500990000e+00 -4.076180000e+00  9.449993897e+00  1.285000000e+00
-2.982505000e+01  2.262641000e+01  2.143478000e+01  4.835950000e+00 -5.145590000e+00 -3.568220000e+00  7.911744613e+00  1.033240000e+00
-3.182042000e+01  2.164240000e+01  2.250811000e+01  4.086580000e+00 -3.916600000e+00 -3.005890000e+00  6.408998857e+00  8.248350000e-01
-3.372809000e+01  2.038524000e+01  2.363281000e+01  3.303910000e+00 -2.846760000e+00 -2.431190000e+00  4.993050030e+00  6.431480000e-01
-3.551242000e+01  1.885545000e+01  2.473111000e+01  2.536580000e+00 -1.964550000e+00 -1.873890000e+00  3.715529374e+00  4.880900000e-01
-3.714054000e+01  1.706871000e+01  2.575133000e+01  1.823460000e+00 -1.275290000e+00 -1.360670000e+00  2.608216595e+00  3.693010000e-01
-3.857918000e+01  1.504683500e+01  2.666086900e+01  1.197820000e+00 -7.681650000e-01 -9.121310000e-01  1.690216903e+00  2.982120000e-01
-3.980347900e+01  1.282307800e+01  2.743868800e+01  6.835210000e-01 -4.199220000e-01 -5.433120000e-01  9.688773776e-01  2.689280000e-01
-4.079831800e+01  1.043684900e+01  2.807494400e+01  2.946820000e-01 -1.991510000e-01 -2.620560000e-01  4.417826944e-01  2.592890000e-01
-4.155573320e+01  7.930742000e+00  2.856915280e+01  3.526680000e-02 -7.215800000e-02 -6.984720000e-02  1.064385057e-01  2.533180000e-01
-4.208263800e+01  5.342273500e+00  2.893011140e+01 -1.016380000e-01 -7.026500000e-03  3.911140000e-02  1.091299975e-01  2.418830000e-01
-4.239336600e+01  2.685279130e+00  2.918277960e+01 -1.213660000e-01  4.979130000e-03  6.777960000e-02  1.390991440e-01  2.249180000e-01
-2.707840000e+01  2.329172000e+01  2.275807000e+01  5.242600000e+00 -5.895280000e+00 -3.927930000e+00  8.812934535e+00  1.174270000e+00
-2.896147000e+01  2.249403000e+01  2.369743000e+01  4.599530000e+00 -4.733970000e+00 -3.450570000e+00  7.447991777e+00  9.690470000e-01
-3.079709000e+01  2.145556000e+01  2.480851000e+01  3.880910000e+00 -3.620440000e+00 -2.910490000e+00  6.053098402e+00  7.813380000e-01
-3.255543000e+01  2.015595000e+01  2.597933000e+01  3.137570000e+00 -2.638050000e+00 -2.343670000e+00  4.721910882e+00  6.111550000e-01
-3.420154000e+01  1.860377000e+01  2.712119000e+01  2.412460000e+00 -1.822230000e+00 -1.789810000e+00  3.513389426e+00  4.653180000e-01
-3.570114000e+01  1.681010000e+01  2.818100000e+01  1.742860000e+00 -1.183900000e+00 -1.278000000e+00  2.464237040e+00  3.554910000e-01
-3.702613000e+01  1.479816000e+01  2.912520300e+01  1.156870000e+00 -7.138400000e-01 -8.317970000e-01  1.593675623e+00  2.920790000e-01
-3.815282400e+01  1.259738000e+01  2.992974400e+01  6.751760000e-01 -3.906200000e-01 -4.672560000e-01  9.092715683e-01  2.669730000e-01
-3.907088800e+01  1.024575400e+01  3.058568400e+01  3.091120000e-01 -1.852460000e-01 -1.933160000e-01  4.089466774e-01  2.585770000e-01
-3.977147230e+01  7.781699100e+00  3.108904380e+01  6.152770000e-02 -6.670090000e-02 -1.195620000e-02  9.152933216e-02  2.527390000e-01
-4.026129430e+01  5.240179380e+00  3.145434460e+01 -7.429430000e-02 -5.620620000e-03  8.234460000e-02  1.110489421e-01  2.412490000e-01
-4.055252100e+01  2.633261310e+00  3.170330180e+01 -1.025210000e-01  5.061310000e-03  9.230180000e-02  1.380427274e-01  2.248000000e-01
-2.636464000e+01  2.337256000e+01  2.475029000e+01  4.930360000e+00 -5.329440000e+00 -3.772710000e+00  8.181975384e+00  1.065400000e+00
-2.797920000e+01  2.253029000e+01  2.575282000e+01  4.340800000e+00 -4.324710000e+00 -3.332180000e+00  6.974889589e+00  8.965810000e-01
-2.962452000e+01  2.143069000e+01  2.694158000e+01  3.664480000e+00 -3.327310000e+00 -2.803420000e+00  5.688459300e+00  7.277320000e-01
-3.122955000e+01  2.008418000e+01  2.817597000e+01  2.963450000e+00 -2.426820000e+00 -2.244030000e+00  4.439274925e+00  5.708530000e-01
-3.273828000e+01  1.849614000e+01  2.937451000e+01  2.283720000e+00 -1.675860000e+00 -1.693490000e+00  3.300271528e+00  4.364080000e-01
-3.411245000e+01  1.668111000e+01  3.048137000e+01  1.658550000e+00 -1.087890000e+00 -1.185630000e+00  2.310846436e+00  3.379880000e-01
-3.532488000e+01  1.466057100e+01  3.146256100e+01  1.113120000e+00 -6.554290000e-01 -7.444390000e-01  1.490910035e+00  2.843500000e-01
-3.635743100e+01  1.246456600e+01  3.229675200e+01  6.645690000e-01 -3.584340000e-01 -3.872480000e-01  8.485799324e-01  2.649270000e-01
-3.719791200e+01  1.012798700e+01  3.297173600e+01  3.220880000e-01 -1.700130000e-01 -1.232640000e-01  3.844985222e-01  2.588400000e-01
-3.784171760e+01  7.684835900e+00  3.348712580e+01  8.728240000e-02 -6.116410000e-02  4.512580000e-02  1.157393723e-01  2.538690000e-01
-3.829224540e+01  5.170270840e+00  3.385648000e+01 -4.624540000e-02 -4.829160000e-03  1.234800000e-01  1.319441860e-01  2.429310000e-01
-3.856030530e+01  2.596469350e+00  3.410361600e+01 -8.230530000e-02  4.969350000e-03  1.146160000e-01  1.411937828e-01  2.281330000e-01
-3.400842530e+01  2.312588100e+00  3.402048500e+01 -2.542530000e-02 -6.571190000e-02  1.254850000e-01  1.439131158e-01  3.706770000e-01
-3.375198430e+01  4.550902000e+00  3.379685300e+01  2.401570000e-02 -2.136980000e-01  1.678530000e-01  2.727970283e-01  4.706580000e-01
-3.337660800e+01  6.750107000e+00  3.348248300e+01  1.293920000e-01 -3.958930000e-01  1.524830000e-01  4.435364950e-01  5.204850000e-01
-3.284498800e+01  8.882931000e+00  3.303397510e+01  3.170120000e-01 -6.295690000e-01  5.797510000e-02  7.072586840e-01  5.606850000e-01
-3.215177500e+01  1.092014400e+01  3.244022800e+01  5.932250000e-01 -9.358560000e-01 -1.187720000e-01  1.114382852e+00  5.965390000e-01
-3.129736400e+01  1.283585000e+01  3.169936800e+01  9.596360000e-01 -1.335150000e+00 -3.766320000e-01  1.686824958e+00  6.310910000e-01
-3.028885000e+01  1.460455000e+01  3.081838100e+01  1.412150000e+00 -1.845450000e+00 -7.086190000e-01  2.429402028e+00  6.653660000e-01
-2.913683000e+01  1.620863000e+01  2.981262000e+01  1.942170000e+00 -2.479370000e+00 -1.102380000e+00  3.336846051e+00  7.003760000e-01
-2.785861000e+01  1.763487000e+01  2.870184000e+01  2.536390000e+00 -3.240130000e+00 -1.541160000e+00  4.393960718e+00  7.398010000e-01
-2.648456000e+01  1.887428000e+01  2.751678000e+01  3.175440000e+00 -4.114720000e+00 -2.001220000e+00  5.569490224e+00  7.937650000e-01
-2.509228000e+01  1.990732000e+01  2.631305000e+01  3.822720000e+00 -5.051680000e+00 -2.448950000e+00  6.791908062e+00  8.783990000e-01
-2.382892000e+01  2.069605000e+01  2.521535000e+01  4.410080000e+00 -5.942950000e+00 -2.831650000e+00  7.923742931e+00  9.967670000e-01
 3.423700000e-01  3.266002000e+01  3.308206500e+01  2.720770000e+00 -1.320980000e+00 -8.039350000e-01  3.129518979e+00  4.682930000e-01
-1.824780000e+00  3.198144000e+01  3.256333000e+01  2.941820000e+00 -1.793560000e+00 -1.052670000e+00  3.602676299e+00  5.025310000e-01
-3.951500000e+00  3.118408000e+01  3.199184000e+01  3.198000000e+00 -2.322920000e+00 -1.325160000e+00  4.168838010e+00  5.363420000e-01
-6.025380000e+00  3.026177000e+01  3.135380000e+01  3.491220000e+00 -2.902230000e+00 -1.610200000e+00  4.817084191e+00  5.728470000e-01
-8.045030000e+00  2.922869000e+01  3.065421000e+01  3.814970000e+00 -3.520310000e+00 -1.894790000e+00  5.526011920e+00  6.157300000e-01
-1.002183000e+01  2.810405000e+01  2.990126000e+01  4.152170000e+00 -4.159950000e+00 -2.167740000e+00  6.264566738e+00  6.707930000e-01
-1.196952000e+01  2.691271000e+01  2.911020000e+01  4.481480000e+00 -4.799290000e+00 -2.412800000e+00  6.995602285e+00  7.430610000e-01
-1.392063000e+01  2.569066000e+01  2.828530000e+01  4.765370000e+00 -5.405340000e+00 -2.625700000e+00  7.669468837e+00  8.317240000e-01
-1.589146000e+01  2.447638000e+01  2.744478000e+01  4.978540000e+00 -5.944620000e+00 -2.792220000e+00  8.241411287e+00  9.303920000e-01
-1.790640000e+01  2.334316000e+01  2.658582000e+01  5.075600000e+00 -6.354840000e+00 -2.919180000e+00  8.641025324e+00  1.024380000e+00
-1.989356000e+01  2.236539000e+01  2.573168000e+01  5.057440000e+00 -6.596610000e+00 -3.010320000e+00  8.840531056e+00  1.087230000e+00
-2.167638000e+01  2.162443000e+01  2.496330000e+01  4.953620000e+00 -6.656570000e+00 -3.066700000e+00  8.846068288e+00  1.107080000e+00
-2.318025000e+01  2.105494000e+01  2.306814000e+01  5.072750000e+00 -7.193060000e+00 -3.285860000e+00  9.395199874e+00  1.254010000e+00
-2.357280000e+01  2.094962000e+01  2.110373000e+01  5.366200000e+00 -7.973380000e+00 -3.603270000e+00  1.026423138e+01  1.511290000e+00
-2.408117000e+01  2.088071000e+01  1.880550000e+01  5.580830000e+00 -8.766290000e+00 -3.990500000e+00  1.113182798e+01  1.802640000e+00
-2.466908000e+01  2.114166000e+01  1.627920000e+01  5.699920000e+00 -9.219340000e+00 -4.454800000e+00  1.171881227e+01  2.011630000e+00
-2.535107000e+01  2.176168000e+01  1.373359000e+01  5.682930000e+00 -9.272320000e+00 -4.846410000e+00  1.190627152e+01  2.049790000e+00
-2.611988000e+01  2.270137000e+01  1.128932000e+01  5.526120000e+00 -8.948630000e+00 -5.074680000e+00  1.167768634e+01  1.896820000e+00
-2.688913000e+01  2.394024000e+01  9.052740000e+00  5.306870000e+00 -8.262760000e+00 -5.049260000e+00  1.104224156e+01  1.604920000e+00
-2.764177000e+01  2.530021000e+01  7.017540000e+00  5.039230000e+00 -7.387790000e+00 -4.787460000e+00  1.014362131e+01  1.280700000e+00
-2.842291000e+01  2.662054000e+01  5.063430000e+00  4.676090000e+00 -6.484460000e+00 -4.417370000e+00  9.133848964e+00  1.014920000e+00
-2.919490000e+01  2.787234000e+01  3.142700000e+00  4.253100000e+00 -5.580660000e+00 -3.993000000e+00  8.073207209e+00  8.292280000e-01
-2.993819000e+01  2.902177000e+01  1.197470000e+00  3.791810000e+00 -4.711230000e+00 -3.576130000e+00  7.025825003e+00  7.046690000e-01
-3.063866000e+01  3.007103000e+01 -7.915800000e-01  3.320340000e+00 -3.888970000e+00 -3.186680000e+00  6.025253090e+00  6.192080000e-01
-2.935347000e+00  3.136091400e+00  4.808212100e+01  2.111530000e-01 -1.100860000e-02  1.231210000e-01  2.446743945e-01  3.033000000e-01
-2.738056000e+00  6.131446000e+00  4.788467900e+01  4.044440000e-01 -1.025400000e-02  2.716790000e-01  4.873290189e-01  3.196280000e-01
-2.469323000e+00  8.992306200e+00  4.754198500e+01  5.914770000e-01 -1.939380000e-02  4.039850000e-01  7.165368387e-01  3.402880000e-01
-2.189359000e+00  1.177395720e+01  4.701422000e+01  7.802410000e-01 -3.404280000e-02  5.032200000e-01  9.290668968e-01  3.653730000e-01
-1.911330000e+00  1.449210090e+01  4.628432600e+01  9.744700000e-01 -5.989910000e-02  5.593260000e-01  1.125177878e+00  3.909730000e-01
-1.633880000e+00  1.714472400e+01  4.533990100e+01  1.175920000e+00 -1.032760000e-01  5.629010000e-01  1.307788712e+00  4.145590000e-01
-1.353170000e+00  1.971734700e+01  4.417666500e+01  1.384930000e+00 -1.716530000e-01  5.086650000e-01  1.485340345e+00  4.342090000e-01
-1.066870000e+00  2.219288000e+01  4.279926600e+01  1.601030000e+00 -2.721200000e-01  3.952660000e-01  1.671401079e+00  4.488720000e-01
-7.745500000e-01  2.455491500e+01  4.121305200e+01  1.822950000e+00 -4.100850000e-01  2.260520000e-01  1.882130685e+00  4.583500000e-01
-4.792200000e-01  2.679210400e+01  3.943267561e+01  2.048580000e+00 -5.878960000e-01  8.675610000e-03  2.131285290e+00  4.633400000e-01
-1.891300000e-01  2.889502400e+01  3.747349700e+01  2.275270000e+00 -8.039760000e-01 -2.455030000e-01  2.425593269e+00  4.653100000e-01
 8.156000000e-02  3.085847000e+01  3.535221900e+01  2.499660000e+00 -1.052530000e+00 -5.227810000e-01  2.762140382e+00  4.667330000e-01
-5.921881000e+00  3.118514800e+00  4.775826200e+01  2.084190000e-01 -1.678520000e-02  1.432620000e-01  2.534644416e-01  3.175040000e-01
-5.770758000e+00  6.146207800e+00  4.752569300e+01  3.998420000e-01 -2.679220000e-02  3.036930000e-01  5.028129724e-01  3.400470000e-01
-5.478954000e+00  9.019788600e+00  4.716283900e+01  5.865460000e-01 -4.961140000e-02  4.378390000e-01  7.336214903e-01  3.667050000e-01
-5.139759000e+00  1.177965610e+01  4.661773100e+01  7.769410000e-01 -8.134390000e-02  5.277310000e-01  9.427375859e-01  3.955340000e-01
-4.788627000e+00  1.445393900e+01  4.586993200e+01  9.761730000e-01 -1.290610000e-01  5.659320000e-01  1.135715412e+00  4.231870000e-01
-4.432260000e+00  1.704768900e+01  4.490789300e+01  1.186940000e+00 -2.003110000e-01  5.448930000e-01  1.321309745e+00  4.473860000e-01
-4.067720000e+00  1.955350400e+01  4.372772200e+01  1.410480000e+00 -3.034960000e-01  4.607220000e-01  1.514539010e+00  4.665630000e-01
-3.691550000e+00  2.195583900e+01  4.233254300e+01  1.646650000e+00 -4.461610000e-01  3.135430000e-01  1.734596516e+00  4.800900000e-01
-3.303020000e+00  2.424155700e+01  4.073137000e+01  1.893980000e+00 -6.334430000e-01  1.083700000e-01  2.000038583e+00  4.883440000e-01
-2.907360000e+00  2.639828700e+01  3.893972600e+01  2.149940000e+00 -8.667130000e-01 -1.452740000e-01  2.322614467e+00  4.926130000e-01
-2.520240000e+00  2.841792000e+01  3.697335000e+01  2.410960000e+00 -1.143080000e+00 -4.346500000e-01  2.703383182e+00  4.948380000e-01
-2.166810000e+00  3.029223000e+01  3.484738500e+01  2.673790000e+00 -1.456770000e+00 -7.456150000e-01  3.134848246e+00  4.981540000e-01
-8.787552000e+00  3.022900900e+00  4.729950700e+01  1.977480000e-01 -2.179910000e-02  1.575070000e-01  2.537477632e-01  3.302360000e-01
-8.664695000e+00  6.005758800e+00  4.705104400e+01  3.819050000e-01 -4.584120000e-02  3.230440000e-01  5.023049577e-01  3.579600000e-01
-8.383105000e+00  8.868311500e+00  4.667705300e+01  5.654950000e-01 -8.368850000e-02  4.560530000e-01  7.312815456e-01  3.896630000e-01
-8.020864000e+00  1.161510100e+01  4.612102600e+01  7.581360000e-01 -1.348990000e-01  5.360260000e-01  9.382386729e-01  4.216020000e-01
-7.621870000e+00  1.426262800e+01  4.535960900e+01  9.647300000e-01 -2.073720000e-01  5.556090000e-01  1.132434758e+00  4.507390000e-01
-7.200640000e+00  1.681400500e+01  4.438373600e+01  1.188460000e+00 -3.099950000e-01  5.087360000e-01  1.329415808e+00  4.751370000e-01
-6.758650000e+00  1.926478800e+01  4.318904800e+01  1.430950000e+00 -4.522120000e-01  3.930480000e-01  1.551322122e+00  4.936910000e-01
-6.294150000e+00  2.160288200e+01  4.178054000e+01  1.692350000e+00 -6.421180000e-01  2.105400000e-01  1.822276362e+00  5.064090000e-01
-5.807630000e+00  2.381449800e+01  4.016919880e+01  1.970970000e+00 -8.845020000e-01 -3.180120000e-02  2.160573499e+00  5.143350000e-01
-5.308050000e+00  2.589152000e+01  3.837260200e+01  2.263550000e+00 -1.179480000e+00 -3.223980000e-01  2.572697445e+00  5.191860000e-01
-4.819740000e+00  2.782730000e+01  3.640654700e+01  2.565560000e+00 -1.522700000e+00 -6.474530000e-01  3.052852566e+00  5.230000000e-01
-4.379060000e+00  2.960997000e+01  3.428134500e+01  2.874340000e+00 -1.909030000e+00 -9.926550000e-01  3.590486029e+00  5.289120000e-01
-1.158610700e+01  2.920881200e+00  4.668607300e+01  1.838930000e-01 -2.731880000e-02  1.690730000e-01  2.512939148e-01  3.419110000e-01
-1.146238700e+01  5.825479700e+00  4.643058800e+01  3.576130000e-01 -6.532030000e-02  3.345880000e-01  4.940677374e-01  3.747310000e-01
-1.119098200e+01  8.644846000e+00  4.604955300e+01  5.360180000e-01 -1.197540000e-01  4.625530000e-01  7.180609965e-01  4.105130000e-01
-1.082081400e+01  1.136196500e+01  4.548706300e+01  7.301860000e-01 -1.920350000e-01  5.300630000e-01  9.225051869e-01  4.449730000e-01
-1.039067000e+01  1.397622800e+01  4.471745200e+01  9.453300000e-01 -2.917720000e-01  5.294520000e-01  1.122095865e+00  4.751830000e-01
-9.917350000e+00  1.648389200e+01  4.373245800e+01  1.184650000e+00 -4.291080000e-01  4.554580000e-01  1.339765385e+00  4.995620000e-01
-9.405030000e+00  1.887947100e+01  4.252934300e+01  1.449970000e+00 -6.145290000e-01  3.073430000e-01  1.604530652e+00  5.175990000e-01
-8.855620000e+00  2.115041700e+01  4.111508230e+01  1.741380000e+00 -8.565830000e-01  8.908230000e-02  1.942697711e+00  5.301140000e-01
-8.272150000e+00  2.328639000e+01  3.950203000e+01  2.056850000e+00 -1.159610000e+00 -1.899700000e-01  2.368842729e+00  5.387900000e-01
-7.666900000e+00  2.528100000e+01  3.771048000e+01  2.392100000e+00 -1.522000000e+00 -5.165200000e-01  2.881912441e+00  5.454590000e-01
-7.074350000e+00  2.712693000e+01  3.575409600e+01  2.741650000e+00 -1.938070000e+00 -8.759040000e-01  3.469865684e+00  5.519640000e-01
-6.541980000e+00  2.881133000e+01  3.363934000e+01  3.104120000e+00 -2.403670000e+00 -1.253660000e+00  4.121268474e+00  5.611480000e-01
-1.434197600e+01  2.829670400e+00  4.590746400e+01  1.680240000e-01 -3.302960000e-02  1.784640000e-01  2.473305851e-01  3.525810000e-01
-1.420206900e+01  5.647770000e+00  4.565042500e+01  3.299310000e-01 -8.563000000e-02  3.404250000e-01  4.817428176e-01  3.910290000e-01
-1.393017300e+01  8.404457000e+00  4.526755000e+01  5.018270000e-01 -1.572430000e-01  4.595500000e-01  6.983852100e-01  4.300450000e-01
-1.355293100e+01  1.107314200e+01  4.470068800e+01  6.970690000e-01 -2.518580000e-01  5.116880000e-01  9.006454642e-01  4.663820000e-01
-1.309666000e+01  1.363943800e+01  4.392795300e+01  9.213400000e-01 -3.805620000e-01  4.889530000e-01  1.110301701e+00  4.972840000e-01
-1.257690000e+01  1.609397900e+01  4.293990300e+01  1.178100000e+00 -5.550210000e-01  3.869030000e-01  1.358551380e+00  5.215750000e-01
-1.199990000e+01  1.842631500e+01  4.173631900e+01  1.469100000e+00 -7.866850000e-01  2.063190000e-01  1.679194935e+00  5.394480000e-01
-1.136782000e+01  2.062345000e+01  4.032524480e+01  1.794180000e+00 -1.084550000e+00 -4.675520000e-02  2.097025661e+00  5.525510000e-01
-1.068827000e+01  2.267678000e+01  3.872227800e+01  2.150730000e+00 -1.452220000e+00 -3.607220000e-01  2.620057790e+00  5.629670000e-01
-9.977730000e+00  2.458248000e+01  3.694740600e+01  2.533270000e+00 -1.886520000e+00 -7.205940000e-01  3.239702196e+00  5.723640000e-01
-9.280170000e+00  2.633279000e+01  3.501408000e+01  2.935830000e+00 -2.380210000e+00 -1.110920000e+00  3.939370594e+00  5.824520000e-01
-8.653090000e+00  2.790781000e+01  3.292187000e+01  3.357910000e+00 -2.930190000e+00 -1.518130000e+00  4.708109143e+00  5.962710000e-01
-1.705502800e+01  2.748116200e+00  4.496520700e+01  1.499720000e-01 -3.888380000e-02  1.852070000e-01  2.414646631e-01  3.619590000e-01
-1.689465800e+01  5.480015000e+00  4.470745900e+01  2.993420000e-01 -1.064850000e-01  3.404590000e-01  4.656790943e-01  4.068520000e-01
-1.661587400e+01  8.163700000e+00  4.432457400e+01  4.641260000e-01 -1.958000000e-01  4.475740000e-01  6.738494412e-01  4.483730000e-01
-1.622579400e+01  1.076974100e+01  4.375880900e+01  6.602060000e-01 -3.132590000e-01  4.818090000e-01  8.752959934e-01  4.859240000e-01
-1.574302200e+01  1.327530300e+01  4.298763200e+01  8.939780000e-01 -4.716970000e-01  4.356320000e-01  1.100667963e+00  5.171810000e-01
-1.517880000e+01  1.566575500e+01  4.200343300e+01  1.169200000e+00 -6.842450000e-01  3.054330000e-01  1.388707737e+00  5.415000000e-01
-1.453952000e+01  1.792552100e+01  4.080854960e+01  1.487480000e+00 -9.634790000e-01  9.354960000e-02  1.774722531e+00  5.597830000e-01
-1.382873000e+01  2.004226000e+01  3.941208300e+01  1.848270000e+00 -1.318740000e+00 -1.919170000e-01  2.278598103e+00  5.743180000e-01
-1.305504000e+01  2.200700000e+01  3.783262100e+01  2.247960000e+00 -1.753000000e+00 -5.373790000e-01  2.900880789e+00  5.872210000e-01
-1.224151000e+01  2.381659000e+01  3.608983000e+01  2.680490000e+00 -2.261410000e+00 -9.261700000e-01  3.627229342e+00  5.999530000e-01
-1.143966000e+01  2.546363000e+01  3.419186000e+01  3.138340000e+00 -2.835370000e+00 -1.343140000e+00  4.437626173e+00  6.147480000e-01
-1.071768000e+01  2.692167000e+01  3.213660000e+01  3.624320000e+00 -3.473330000e+00 -1.773400000e+00  5.323970728e+00  6.361230000e-01
-1.971847600e+01  2.671888000e+00  4.385864900e+01  1.295240000e-01 -4.461200000e-02  1.886490000e-01  2.331418931e-01  3.696560000e-01
-1.953722000e+01  5.318965000e+00  4.360215900e+01  2.657800000e-01 -1.273350000e-01  3.341590000e-01  4.455507243e-01  4.218240000e-01
-1.924689400e+01  7.924388000e+00  4.322268900e+01  4.231060000e-01 -2.343120000e-01  4.266890000e-01  6.449684514e-01  4.652190000e-01
-1.884216400e+01  1.045762100e+01  4.266140000e+01  6.198360000e-01 -3.743790000e-01  4.414000000e-01  8.480508608e-01  5.033940000e-01
-1.833094200e+01  1.289393900e+01  4.189845100e+01  8.630580000e-01 -5.620610000e-01  3.714510000e-01  1.094877858e+00  5.347670000e-01
-1.772221000e+01  1.521095900e+01  4.092824400e+01  1.156790000e+00 -8.120410000e-01  2.142440000e-01  1.429501375e+00  5.593900000e-01
-1.702256000e+01  1.739204000e+01  3.975165700e+01  1.502440000e+00 -1.137960000e+00 -2.634300000e-02  1.884933121e+00  5.787770000e-01
-1.623732000e+01  1.942242000e+01  3.838358600e+01  1.898680000e+00 -1.549580000e+00 -3.404140000e-01  2.474280827e+00  5.954500000e-01
-1.537480000e+01  2.129363000e+01  3.684155500e+01  2.341200000e+00 -2.049370000e+00 -7.124450000e-01  3.191976302e+00  6.112970000e-01
-1.446262000e+01  2.300378000e+01  3.514499000e+01  2.822380000e+00 -2.631220000e+00 -1.125010000e+00  4.019302807e+00  6.279000000e-01
-1.356039000e+01  2.454283000e+01  3.330009000e+01  3.335610000e+00 -3.285170000e+00 -1.561910000e+00  4.935402603e+00  6.490890000e-01
-1.274917000e+01  2.587616000e+01  3.129499000e+01  3.882830000e+00 -4.011840000e+00 -2.010010000e+00  5.933916851e+00  6.826780000e-01
-2.232030500e+01  2.597760900e+00  4.259122400e+01  1.066950000e-01 -4.993910000e-02  1.882240000e-01  2.220495686e-01  3.752840000e-01
-2.212173000e+01  5.160713000e+00  4.233814300e+01  2.292700000e-01 -1.472870000e-01  3.211430000e-01  4.211781330e-01  4.354220000e-01
-2.181924700e+01  7.685003000e+00  4.196420300e+01  3.787530000e-01 -2.711970000e-01  3.972030000e-01  6.121861408e-01  4.801700000e-01
-2.139634100e+01  1.014039700e+01  4.141279200e+01  5.756590000e-01 -4.326030000e-01  3.917920000e-01  8.197741220e-01  5.185210000e-01
-2.085641900e+01  1.249933700e+01  4.066597100e+01  8.275810000e-01 -6.476630000e-01  2.989710000e-01  1.092584702e+00  5.499250000e-01
-2.020633000e+01  1.473853700e+01  3.971822500e+01  1.138670000e+00 -9.324630000e-01  1.172250000e-01  1.476414006e+00  5.752330000e-01
-1.945018000e+01  1.683630000e+01  3.857382400e+01  1.509820000e+00 -1.301700000e+00 -1.481760000e-01  1.998983604e+00  5.963790000e-01
-1.859400000e+01  1.877850000e+01  3.724718100e+01  1.939000000e+00 -1.765500000e+00 -4.858190000e-01  2.666970444e+00  6.157000000e-01
-1.765049000e+01  2.055670000e+01  3.575710000e+01  2.420510000e+00 -2.326300000e+00 -8.789000000e-01  3.470303382e+00  6.346960000e-01
-1.664865000e+01  2.216798000e+01  3.412189000e+01  2.946350000e+00 -2.977020000e+00 -1.309110000e+00  4.388324896e+00  6.556880000e-01
-1.565703000e+01  2.359782000e+01  3.234498000e+01  3.507970000e+00 -3.707180000e+00 -1.760020000e+00  5.398769070e+00  6.853430000e-01
-1.476185000e+01  2.480361000e+01  3.040705000e+01  4.112150000e+00 -4.519390000e+00 -2.215950000e+00  6.499622912e+00  7.367060000e-01
-2.484822720e+01  2.524115600e+00  4.116758800e+01  8.177280000e-02 -5.458440000e-02  1.835880000e-01  2.082565756e-01  3.785460000e-01
-2.463591200e+01  5.003528000e+00  4.091942800e+01  1.900880000e-01 -1.653720000e-01  3.014280000e-01  3.928615345e-01  4.470920000e-01
-2.432086100e+01  7.445653000e+00  4.055489300e+01  3.311390000e-01 -3.046470000e-01  3.598930000e-01  5.761820922e-01  4.928070000e-01
-2.388075000e+01  9.820936000e+00  4.001981100e+01  5.272500000e-01 -4.850640000e-01  3.348110000e-01  7.908084802e-01  5.310640000e-01
-2.331474700e+01  1.210087200e+01  3.929719300e+01  7.862530000e-01 -7.241280000e-01  2.211930000e-01  1.091550037e+00  5.625600000e-01
-2.262486000e+01  1.425885000e+01  3.838251590e+01  1.112140000e+00 -1.039150000e+00  1.851590000e-02  1.522179668e+00  5.889600000e-01
-2.181880000e+01  1.627431000e+01  3.728114000e+01  1.505200000e+00 -1.445690000e+00 -2.668600000e-01  2.104010664e+00  6.123580000e-01
-2.090078000e+01  1.813054000e+01  3.600956100e+01  1.962220000e+00 -1.954460000e+00 -6.224390000e-01  2.838600276e+00  6.346640000e-01
-1.988541000e+01  1.982009000e+01  3.458623000e+01  2.476590000e+00 -2.567910000e+00 -1.030770000e+00  3.713508663e+00  6.570460000e-01
-1.880558000e+01  2.133617000e+01  3.302802000e+01  3.038420000e+00 -3.278830000e+00 -1.472980000e+00  4.706632803e+00  6.828180000e-01
-1.773632000e+01  2.266069000e+01  3.133337000e+01  3.639680000e+00 -4.076310000e+00 -1.931630000e+00  5.796099393e+00  7.222800000e-01
-1.677776000e+01  2.374265000e+01  2.947834000e+01  4.282240000e+00 -4.963350000e+00 -2.388660000e+00  6.976970635e+00  7.948890000e-01
-2.729171290e+01  2.451575200e+00  3.959367400e+01  5.528710000e-02 -5.832480000e-02  1.746740000e-01  1.922744185e-01  3.793100000e-01
-2.706920600e+01  4.850034000e+00  3.935247900e+01  1.487940000e-01 -1.807660000e-01  2.754790000e-01  3.615310231e-01  4.563350000e-01
-2.674334100e+01  7.211767000e+00  3.900091500e+01  2.806590000e-01 -3.331330000e-01  3.159150000e-01  5.380979067e-01  5.027690000e-01
-2.628738100e+01  9.508667000e+00  3.848740000e+01  4.746190000e-01 -5.293330000e-01  2.724000000e-01  7.613529931e-01  5.408340000e-01
-2.569556600e+01  1.171008500e+01  3.779677100e+01  7.384340000e-01 -7.879150000e-01  1.407710000e-01  1.088995544e+00  5.725970000e-01
-2.497226000e+01  1.379088000e+01  3.692527470e+01  1.075740000e+00 -1.127120000e+00 -7.872530000e-02  1.560068497e+00  6.004500000e-01
-2.412008000e+01  1.572875000e+01  3.587994200e+01  1.485920000e+00 -1.563250000e+00 -3.790580000e-01  2.189838756e+00  6.264380000e-01
-2.314836000e+01  1.750537000e+01  3.467473000e+01  1.964640000e+00 -2.107630000e+00 -7.472700000e-01  2.976630142e+00  6.519920000e-01
-2.207123000e+01  1.911288000e+01  3.332947000e+01  2.503770000e+00 -2.763120000e+00 -1.165530000e+00  3.906681012e+00  6.781890000e-01
-2.092562000e+01  2.054388000e+01  3.185990000e+01  3.092380000e+00 -3.522120000e+00 -1.615100000e+00  4.957488413e+00  7.092300000e-01
-1.979269000e+01  2.177452000e+01  3.026024000e+01  3.718310000e+00 -4.372480000e+00 -2.075760000e+00  6.103539152e+00  7.581570000e-01
-1.878534000e+01  2.274294000e+01  2.850855000e+01  4.380660000e+00 -5.315060000e+00 -2.527450000e+00  7.336760071e+00  8.498150000e-01
-2.964193910e+01  2.385927100e+00  3.787576500e+01  2.806090000e-02 -6.117290000e-02  1.617650000e-01  1.752068864e-01  3.777320000e-01
-2.941057400e+01  4.711799000e+00  3.764313600e+01  1.064260000e-01 -1.932010000e-01  2.441360000e-01  3.290220454e-01  4.628780000e-01
-2.907534600e+01  7.001550000e+00  3.730739000e+01  2.286540000e-01 -3.561500000e-01  2.663900000e-01  5.000890984e-01  5.099300000e-01
-2.860247400e+01  9.227228000e+00  3.682061500e+01  4.195260000e-01 -5.648720000e-01  2.056150000e-01  7.330484086e-01  5.478770000e-01
-2.798649800e+01  1.135930800e+01  3.616725160e+01  6.865020000e-01 -8.386920000e-01  5.825160000e-02  1.085395097e+00  5.801790000e-01
-2.722836000e+01  1.337233000e+01  3.534406900e+01  1.032640000e+00 -1.196670000e+00 -1.749310000e-01  1.590272088e+00  6.098080000e-01
-2.633370000e+01  1.524128000e+01  3.435830700e+01  1.456300000e+00 -1.655720000e+00 -4.866930000e-01  2.258116136e+00  6.386300000e-01
-2.531116000e+01  1.695007000e+01  3.322607300e+01  1.951840000e+00 -2.227930000e+00 -8.639270000e-01  3.085404565e+00  6.677160000e-01
-2.417641000e+01  1.848753000e+01  3.196488000e+01  2.509590000e+00 -2.916470000e+00 -1.289120000e+00  4.057791222e+00  6.983550000e-01
-2.296869000e+01  1.984367000e+01  3.058925000e+01  3.116310000e+00 -3.713330000e+00 -1.741750000e+00  5.151106752e+00  7.356870000e-01
-2.177517000e+01  2.099379000e+01  2.910128000e+01  3.753830000e+00 -4.598210000e+00 -2.200720000e+00  6.330714288e+00  7.935020000e-01
-2.073061000e+01  2.187092000e+01  2.749007000e+01  4.407390000e+00 -5.559080000e+00 -2.637930000e+00  7.568826312e+00  8.968910000e-01
-3.188913752e+01  2.340393200e+00  3.601953400e+01  8.624750000e-04 -6.360680000e-02  1.455340000e-01  1.588291976e-01  3.745420000e-01
-3.165374970e+01  4.614577000e+00  3.579755100e+01  6.425030000e-02 -2.035230000e-01  2.085510000e-01  2.984011263e-01  4.675250000e-01
-3.130648600e+01  6.852496000e+00  3.548002300e+01  1.775140000e-01 -3.751040000e-01  2.120230000e-01  4.660128577e-01  5.158140000e-01
-3.081269900e+01  9.026636000e+00  3.501781000e+01  3.663010000e-01 -5.942640000e-01  1.338100000e-01  7.107962017e-01  5.545620000e-01
-3.016544100e+01  1.110761500e+01  3.439866270e+01  6.375590000e-01 -8.813850000e-01 -2.933730000e-02  1.088201118e+00  5.883250000e-01
-2.936541400e+01  1.306744000e+01  3.362169400e+01  9.935860000e-01 -1.256560000e+00 -2.763060000e-01  1.625577183e+00  6.202580000e-01
-2.841949000e+01  1.488338000e+01  3.269138900e+01  1.431510000e+00 -1.737620000e+00 -5.996110000e-01  2.329823490e+00  6.518450000e-01
-2.733703000e+01  1.653575000e+01  3.162464200e+01  1.943970000e+00 -2.337250000e+00 -9.863580000e-01  3.196038020e+00  6.840240000e-01
-2.613557000e+01  1.801187000e+01  3.044065000e+01  2.519430000e+00 -3.059130000e+00 -1.418350000e+00  4.209218527e+00  7.189330000e-01
-2.485444000e+01  1.930166000e+01  2.916107000e+01  3.140560000e+00 -3.891340000e+00 -1.873930000e+00  5.340155218e+00  7.634710000e-01
-2.358339000e+01  2.038039000e+01  2.780785000e+01  3.780610000e+00 -4.799610000e+00 -2.324150000e+00  6.536890801e+00  8.316820000e-01
-2.247723000e+01  2.119705000e+01  2.640608000e+01  4.399770000e+00 -5.729950000e+00 -2.738920000e+00  7.726058880e+00  9.392510000e-01
 5.315600000e-01  3.435689000e+01  3.069561000e+01  2.926860000e+00 -1.597110000e+00 -1.085390000e+00  3.506471341e+00  4.685810000e-01
 6.747000000e-01  3.594063000e+01  2.820992000e+01  3.111200000e+00 -1.857370000e+00 -1.348080000e+00  3.866097314e+00  4.672270000e-01
 7.731200000e-01  3.742788000e+01  2.564466000e+01  3.263520000e+00 -2.078120000e+00 -1.579340000e+00  4.178930528e+00  4.643770000e-01
 8.245900000e-01  3.883493000e+01  2.301996000e+01  3.373590000e+00 -2.238070000e+00 -1.770040000e+00  4.418496171e+00  4.599740000e-01
 8.272000000e-01  4.017246000e+01  2.035005000e+01  3.434500000e+00 -2.321540000e+00 -1.914950000e+00  4.566439721e+00  4.540220000e-01
 7.806700000e-01  4.144265000e+01  1.764588000e+01  3.443570000e+00 -2.320350000e+00 -2.013120000e+00  4.614634395e+00  4.466750000e-01
 6.887000000e-01  4.264178000e+01  1.491299000e+01  3.403100000e+00 -2.234220000e+00 -2.068010000e+00  4.566124613e+00  4.381540000e-01
 5.581400000e-01  4.375695000e+01  1.215627000e+01  3.319240000e+00 -2.070050000e+00 -2.086730000e+00  4.433610636e+00  4.287600000e-01
 3.980300000e-01  4.477410000e+01  9.374730000e+00  3.200830000e+00 -1.840900000e+00 -2.079270000e+00  4.237639583e+00  4.188830000e-01
 2.181900000e-01  4.567208000e+01  6.569280000e+00  3.057290000e+00 -1.563920000e+00 -2.056220000e+00  4.002612722e+00  4.089420000e-01
 2.737000000e-02  4.643456000e+01  3.739790000e+00  2.897270000e+00 -1.258440000e+00 -2.027210000e+00  3.753321871e+00  3.992240000e-01
-1.712700000e-01  4.706129200e+01  8.916000000e-01  2.724230000e+00 -9.437080000e-01 -1.997200000e+00  3.507252731e+00  3.887640000e-01
-1.604470000e+00  3.357906000e+01  3.016767000e+01  3.195930000e+00 -2.142940000e+00 -1.366330000e+00  4.083260716e+00  5.049410000e-01
-1.451120000e+00  3.506428000e+01  2.766881000e+01  3.429880000e+00 -2.475720000e+00 -1.660190000e+00  4.544171780e+00  5.049860000e-01
-1.359720000e+00  3.646246000e+01  2.509229000e+01  3.627480000e+00 -2.761540000e+00 -1.919710000e+00  4.946716164e+00  5.030190000e-01
-1.330710000e+00  3.779772000e+01  2.246098000e+01  3.772290000e+00 -2.972280000e+00 -2.133020000e+00  5.254940015e+00  4.988010000e-01
-1.366910000e+00  3.908647000e+01  1.979303000e+01  3.851890000e+00 -3.087530000e+00 -2.291970000e+00  5.442703791e+00  4.923250000e-01
-1.468140000e+00  4.033248000e+01  1.710290000e+01  3.860960000e+00 -3.096520000e+00 -2.393100000e+00  5.497488139e+00  4.836950000e-01
-1.629260000e+00  4.153445000e+01  1.439885000e+01  3.801740000e+00 -2.998550000e+00 -2.438150000e+00  5.421171880e+00  4.731720000e-01
-1.839540000e+00  4.267663000e+01  1.168411000e+01  3.683560000e+00 -2.802370000e+00 -2.434890000e+00  5.229778313e+00  4.611760000e-01
-2.085080000e+00  4.374097000e+01  8.957040000e+00  3.519620000e+00 -2.524030000e+00 -2.394960000e+00  4.949170212e+00  4.481870000e-01
-2.350420000e+00  4.470423000e+01  6.213290000e+00  3.324880000e+00 -2.184770000e+00 -2.333110000e+00  4.612098139e+00  4.346110000e-01
-2.623450000e+00  4.554749000e+01  3.451300000e+00  3.111050000e+00 -1.808510000e+00 -2.262100000e+00  4.250463143e+00  4.205010000e-01
-2.897060000e+00  4.627394000e+01  6.717700000e-01  2.885740000e+00 -1.419060000e+00 -2.190230000e+00  3.890801214e+00  4.037860000e-01
-3.690630000e+00  3.267093000e+01  2.958756000e+01  3.510870000e+00 -2.755070000e+00 -1.672440000e+00  4.765886530e+00  5.417360000e-01
-3.514310000e+00  3.404265000e+01  2.707654000e+01  3.807090000e+00 -3.170350000e+00 -1.999460000e+00  5.342554977e+00  5.449490000e-01
-3.415800000e+00  3.533645000e+01  2.448724000e+01  4.063100000e+00 -3.529550000e+00 -2.290760000e+00  5.849280827e+00  5.463330000e-01
-3.397080000e+00  3.658646000e+01  2.184540000e+01  4.253920000e+00 -3.797540000e+00 -2.531600000e+00  6.239081982e+00  5.448620000e-01
-3.463720000e+00  3.781571000e+01  1.917687000e+01  4.359380000e+00 -3.947290000e+00 -2.710130000e+00  6.475345315e+00  5.394670000e-01
-3.617630000e+00  3.903256000e+01  1.649864000e+01  4.369370000e+00 -3.965440000e+00 -2.818360000e+00  6.539056635e+00  5.295410000e-01
-3.851170000e+00  4.023317000e+01  1.382355000e+01  4.286930000e+00 -3.851830000e+00 -2.855450000e+00  6.431792742e+00  5.154700000e-01
-4.149170000e+00  4.140269000e+01  1.115550000e+01  4.125030000e+00 -3.617310000e+00 -2.827500000e+00  6.172160107e+00  4.985780000e-01
-4.489790000e+00  4.251686000e+01  8.490000000e+00  3.904310000e+00 -3.282140000e+00 -2.750000000e+00  5.794702715e+00  4.804120000e-01
-4.851270000e+00  4.354755000e+01  5.820040000e+00  3.645630000e+00 -2.872450000e+00 -2.640860000e+00  5.340012045e+00  4.619360000e-01
-5.214670000e+00  4.447308000e+01  3.136290000e+00  3.367530000e+00 -2.416920000e+00 -2.519510000e+00  4.850741307e+00  4.428390000e-01
-5.570690000e+00  4.529217000e+01  4.366200000e-01  3.080310000e+00 -1.944830000e+00 -2.396580000e+00  4.360535417e+00  4.209940000e-01
-5.713390000e+00  3.162404000e+01  2.894903000e+01  3.874610000e+00 -3.425960000e+00 -1.989970000e+00  5.541641018e+00  5.846350000e-01
-5.500440000e+00  3.286604000e+01  2.642719000e+01  4.246860000e+00 -3.931960000e+00 -2.351810000e+00  6.247170526e+00  5.970860000e-01
-5.378630000e+00  3.403895000e+01  2.382274000e+01  4.576870000e+00 -4.373050000e+00 -2.678260000e+00  6.873454876e+00  6.096890000e-01
-5.356230000e+00  3.519135000e+01  2.116831000e+01  4.826770000e+00 -4.701650000e+00 -2.953690000e+00  7.357139796e+00  6.186630000e-01
-5.444370000e+00  3.635289000e+01  1.849347000e+01  4.965630000e+00 -4.886110000e+00 -3.160530000e+00  7.649869418e+00  6.190190000e-01
-5.648300000e+00  3.753507000e+01  1.582250000e+01  4.977700000e+00 -4.909930000e+00 -3.284500000e+00  7.724820396e+00  6.076660000e-01
-5.960560000e+00  3.873472000e+01  1.317657000e+01  4.864440000e+00 -4.773280000e+00 -3.317430000e+00  7.579730884e+00  5.853900000e-01
-6.355330000e+00  3.993228000e+01  1.055923000e+01  4.647670000e+00 -4.491720000e+00 -3.265770000e+00  7.241659940e+00  5.560700000e-01
-6.804830000e+00  4.109816000e+01  7.966830000e+00  4.355170000e+00 -4.090840000e+00 -3.144170000e+00  6.751909554e+00  5.251970000e-01
-7.273050000e+00  4.220073000e+01  5.382090000e+00  4.019950000e+00 -3.602270000e+00 -2.980410000e+00  6.165970396e+00  4.964260000e-01
-7.736640000e+00  4.320925000e+01  2.790860000e+00  3.665360000e+00 -3.060750000e+00 -2.798840000e+00  5.535030247e+00  4.698520000e-01
-8.181480000e+00  4.411858000e+01  1.828300000e-01  3.307520000e+00 -2.500420000e+00 -2.617370000e+00  4.903306481e+00  4.425340000e-01
-7.673800000e+00  3.045140000e+01  2.825334000e+01  4.278200000e+00 -4.142600000e+00 -2.305660000e+00  6.385937522e+00  6.419680000e-01
-7.407980000e+00  3.154474000e+01  2.572718000e+01  4.742020000e+00 -4.749260000e+00 -2.699820000e+00  7.234034300e+00  6.770630000e-01
-7.247500000e+00  3.258068000e+01  2.310852000e+01  5.160500000e+00 -5.277320000e+00 -3.066480000e+00  7.992757110e+00  7.165980000e-01
-7.201090000e+00  3.361851000e+01  2.043583000e+01  5.487910000e+00 -5.673490000e+00 -3.385170000e+00  8.588656523e+00  7.488810000e-01
-7.296820000e+00  3.470319000e+01  1.774426000e+01  5.672180000e+00 -5.890810000e+00 -3.634740000e+00  8.949111871e+00  7.626520000e-01
-7.553430000e+00  3.585123000e+01  1.507269000e+01  5.682570000e+00 -5.910770000e+00 -3.787310000e+00  9.031750707e+00  7.502550000e-01
-7.952020000e+00  3.705426000e+01  1.245116000e+01  5.527980000e+00 -5.738740000e+00 -3.825840000e+00  8.839046972e+00  7.113690000e-01
-8.464260000e+00  3.828516000e+01  9.895040000e+00  5.234740000e+00 -5.396840000e+00 -3.745960000e+00  8.400035784e+00  6.556030000e-01
-9.033500000e+00  3.950986000e+01  7.385050000e+00  4.856500000e+00 -4.918140000e+00 -3.575950000e+00  7.782102011e+00  5.969050000e-01
-9.620670000e+00  4.068555000e+01  4.901900000e+00  4.430330000e+00 -4.342450000e+00 -3.346500000e+00  7.048670666e+00  5.455000000e-01
-1.019226000e+01  4.177966000e+01  2.416910000e+00  3.990740000e+00 -3.709340000e+00 -3.096290000e+00  6.266755201e+00  5.041730000e-01
-1.073116000e+01  4.277665000e+01 -8.594000000e-02  3.555840000e+00 -3.058350000e+00 -2.847940000e+00  5.487099878e+00  4.685030000e-01
-9.580920000e+00  2.916811000e+01  2.751807000e+01  4.705080000e+00 -4.888890000e+00 -2.600930000e+00  7.266626460e+00  7.253460000e-01
-9.255810000e+00  3.009592000e+01  2.499166000e+01  5.267190000e+00 -5.603080000e+00 -3.028340000e+00  8.264904061e+00  8.034650000e-01
-9.026830000e+00  3.097094000e+01  2.236370000e+01  5.801170000e+00 -6.233060000e+00 -3.433300000e+00  9.181076147e+00  8.964610000e-01
-8.944090000e+00  3.188742000e+01  1.966097000e+01  6.216910000e+00 -6.692580000e+00 -3.810030000e+00  9.897319112e+00  9.817190000e-01
-9.033830000e+00  3.289166000e+01  1.694014000e+01  6.458170000e+00 -6.937340000e+00 -4.119860000e+00  1.033479039e+01  1.030770000e+00
-9.333420000e+00  3.400854000e+01  1.425078000e+01  6.472580000e+00 -6.941460000e+00 -4.323220000e+00  1.042920850e+01  1.015680000e+00
-9.850870000e+00  3.522241000e+01  1.165390000e+01  6.243130000e+00 -6.717590000e+00 -4.373100000e+00  1.016005370e+01  9.348050000e-01
-1.049349000e+01  3.649910000e+01  9.158280000e+00  5.857510000e+00 -6.296900000e+00 -4.269720000e+00  9.601660371e+00  8.216870000e-01
-1.120559000e+01  3.778845000e+01  6.753750000e+00  5.368410000e+00 -5.726550000e+00 -4.034250000e+00  8.825439020e+00  7.097840000e-01
-1.191781000e+01  3.904349000e+01  4.387670000e+00  4.844190000e+00 -5.053510000e+00 -3.729830000e+00  7.931946287e+00  6.168020000e-01
-1.259879000e+01  4.021987000e+01  2.025350000e+00  4.315210000e+00 -4.326130000e+00 -3.400150000e+00  6.992671746e+00  5.488930000e-01
-1.322896000e+01  4.130137000e+01 -3.615900000e-01  3.804040000e+00 -3.585630000e+00 -3.079790000e+00  6.067336258e+00  4.989810000e-01
-1.146495000e+01  2.780443000e+01  2.675299000e+01  5.119050000e+00 -5.639570000e+00 -2.865010000e+00  8.137426189e+00  8.448340000e-01
-1.105940000e+01  2.854010000e+01  2.424732000e+01  5.797600000e+00 -6.477900000e+00 -3.307680000e+00  9.301403182e+00  9.931620000e-01
-1.076947000e+01  2.924166000e+01  2.160415000e+01  6.439530000e+00 -7.211340000e+00 -3.760850000e+00  1.037376325e+01  1.183820000e+00
-1.057581000e+01  2.999841000e+01  1.887184000e+01  7.013190000e+00 -7.762590000e+00 -4.200160000e+00  1.127315313e+01  1.372850000e+00
-1.063364000e+01  3.091295000e+01  1.607792000e+01  7.335360000e+00 -8.034050000e+00 -4.618080000e+00  1.181863480e+01  1.479130000e+00
-1.101990000e+01  3.201283000e+01  1.333870000e+01  7.307100000e+00 -7.998170000e+00 -4.909300000e+00  1.189393376e+01  1.450540000e+00
-1.167540000e+01  3.327630000e+01  1.075908000e+01  6.980600000e+00 -7.675700000e+00 -4.982920000e+00  1.150976275e+01  1.294410000e+00
-1.250988000e+01  3.461627000e+01  8.366670000e+00  6.438120000e+00 -7.150730000e+00 -4.819330000e+00  1.076142511e+01  1.073920000e+00
-1.336577000e+01  3.598509000e+01  6.084210000e+00  5.835230000e+00 -6.467910000e+00 -4.507790000e+00  9.808360699e+00  8.676610000e-01
-1.420428000e+01  3.731961000e+01  3.862990000e+00  5.208720000e+00 -5.691390000e+00 -4.106510000e+00  8.739914676e+00  7.117190000e-01
-1.498382000e+01  3.857445000e+01  1.633770000e+00  4.600180000e+00 -4.869550000e+00 -3.692630000e+00  7.649162670e+00  6.044890000e-01
-1.569593000e+01  3.972972000e+01 -6.281900000e-01  4.021070000e+00 -4.046280000e+00 -3.296890000e+00  6.588692545e+00  5.332000000e-01
-1.335129000e+01  2.638999000e+01  2.598440000e+01  5.487710000e+00 -6.368010000e+00 -3.071600000e+00  8.949929551e+00  9.998810000e-01
-1.289518000e+01  2.692251000e+01  2.350257000e+01  6.251820000e+00 -7.330490000e+00 -3.531430000e+00  1.026120533e+01  1.263940000e+00
-1.248408000e+01  2.738565000e+01  2.088583000e+01  7.056920000e+00 -8.222350000e+00 -3.995170000e+00  1.154852990e+01  1.600830000e+00
-1.229385000e+01  2.797500000e+01  1.806841000e+01  7.673150000e+00 -8.863000000e+00 -4.556590000e+00  1.257746049e+01  1.908640000e+00
-1.242634000e+01  2.880025000e+01  1.519951000e+01  7.963660000e+00 -9.150750000e+00 -5.088490000e+00  1.315480280e+01  2.063430000e+00
-1.288192000e+01  2.990368000e+01  1.241670000e+01  7.908080000e+00 -9.046320000e+00 -5.467300000e+00  1.320094709e+01  2.007140000e+00
-1.363207000e+01  3.123235000e+01  9.839590000e+00  7.522930000e+00 -8.600650000e+00 -5.583410000e+00  1.271770905e+01  1.761000000e+00
-1.458802000e+01  3.269759000e+01  7.525530000e+00  6.891980000e+00 -7.901410000e+00 -5.391470000e+00  1.178980988e+01  1.403150000e+00
-1.559646000e+01  3.415741000e+01  5.426640000e+00  6.163540000e+00 -7.089590000e+00 -4.947360000e+00  1.061733878e+01  1.061840000e+00
-1.652772000e+01  3.556954000e+01  3.357750000e+00  5.466280000e+00 -6.205460000e+00 -4.447050000e+00  9.389579573e+00  8.189060000e-01
-1.738529000e+01  3.689131000e+01  1.275040000e+00  4.796710000e+00 -5.296690000e+00 -3.941160000e+00  8.160642985e+00  6.640480000e-01
-1.815569000e+01  3.810316000e+01 -8.644700000e-01  4.173310000e+00 -4.403840000e+00 -3.477970000e+00  6.993325276e+00  5.682930000e-01
-1.530909000e+01  2.499639000e+01  2.520591000e+01  5.732910000e+00 -7.004610000e+00 -3.232090000e+00  9.611307096e+00  1.177130000e+00
-1.479010000e+01  2.524778000e+01  2.281722000e+01  6.592900000e+00 -8.159220000e+00 -3.643780000e+00  1.110478879e+01  1.575080000e+00
-1.441827000e+01  2.552745000e+01  2.013239000e+01  7.397730000e+00 -9.142550000e+00 -4.217610000e+00  1.249403313e+01  2.052440000e+00
-1.428630000e+01  2.595271000e+01  1.728321000e+01  7.996700000e+00 -9.860290000e+00 -4.852790000e+00  1.359125088e+01  2.439870000e+00
-1.444380000e+01  2.669390000e+01  1.433875000e+01  8.303200000e+00 -1.015010000e+01 -5.504250000e+00  1.422196992e+01  2.606380000e+00
-1.500901000e+01  2.781992000e+01  1.151588000e+01  8.174990000e+00 -9.949080000e+00 -5.970120000e+00  1.419355442e+01  2.510410000e+00
-1.587944000e+01  2.923159000e+01  9.005060000e+00  7.703560000e+00 -9.356410000e+00 -6.070940000e+00  1.355520407e+01  2.184370000e+00
-1.689966000e+01  3.080120000e+01  6.788490000e+00  7.036340000e+00 -8.497800000e+00 -5.834510000e+00  1.248055257e+01  1.711560000e+00
-1.795929000e+01  3.237357000e+01  4.828720000e+00  6.281710000e+00 -7.527430000e+00 -5.308280000e+00  1.114898737e+01  1.244930000e+00
-1.894679000e+01  3.385261000e+01  2.943150000e+00  5.549210000e+00 -6.542390000e+00 -4.683150000e+00  9.773867835e+00  9.125220000e-01
-1.983232000e+01  3.521597000e+01  9.881800000e-01  4.867680000e+00 -5.567030000e+00 -4.108820000e+00  8.459818757e+00  7.148800000e-01
-2.063016000e+01  3.645992000e+01 -1.042120000e+00  4.228840000e+00 -4.625080000e+00 -3.596220000e+00  7.225458535e+00  5.995470000e-01
-1.733580000e+01  2.366097000e+01  2.445414000e+01  5.835200000e+00 -7.517030000e+00 -3.322860000e+00  1.007951872e+01  1.337680000e+00
-1.690166000e+01  2.373397000e+01  2.209537000e+01  6.643340000e+00 -8.743030000e+00 -3.762630000e+00  1.160740817e+01  1.811160000e+00
-1.664603000e+01  2.382666000e+01  1.943795000e+01  7.370970000e+00 -9.810340000e+00 -4.358050000e+00  1.302177290e+01  2.361310000e+00
-1.662626000e+01  2.413080000e+01  1.656907000e+01  7.897740000e+00 -1.055220000e+01 -5.060930000e+00  1.411864846e+01  2.790990000e+00
-1.691961000e+01  2.478120000e+01  1.361994000e+01  8.106390000e+00 -1.084480000e+01 -5.764060000e+00  1.471555753e+01  2.941030000e+00
-1.756863000e+01  2.593640000e+01  1.083943000e+01  7.928370000e+00 -1.053360000e+01 -6.237570000e+00  1.458502860e+01  2.794430000e+00
-1.848981000e+01  2.744484000e+01  8.426350000e+00  7.437190000e+00 -9.773160000e+00 -6.293650000e+00  1.379987253e+01  2.403180000e+00
-1.949043000e+01  2.907393000e+01  6.322370000e+00  6.817570000e+00 -8.795070000e+00 -6.001630000e+00  1.264326222e+01  1.863290000e+00
-2.050929000e+01  3.070802000e+01  4.453870000e+00  6.126710000e+00 -7.713980000e+00 -5.442630000e+00  1.125452283e+01  1.337720000e+00
-2.146804000e+01  3.221871000e+01  2.689590000e+00  5.440960000e+00 -6.657290000e+00 -4.755910000e+00  9.825590862e+00  9.636930000e-01
-2.233656000e+01  3.358781000e+01  8.193200000e-01  4.790440000e+00 -5.647190000e+00 -4.157780000e+00  8.492714808e+00  7.464720000e-01
-2.312967000e+01  3.483123000e+01 -1.133920000e+00  4.169330000e+00 -4.685770000e+00 -3.628620000e+00  7.246146303e+00  6.218950000e-01
-1.942719000e+01  2.253748000e+01  2.374824000e+01  5.735810000e+00 -7.755520000e+00 -3.381760000e+00  1.022173701e+01  1.413320000e+00
-1.917436000e+01  2.250210000e+01  2.146612000e+01  6.407640000e+00 -8.948900000e+00 -3.827880000e+00  1.165303938e+01  1.882200000e+00
-1.912819000e+01  2.248890000e+01  1.889919000e+01  6.975810000e+00 -1.000010000e+01 -4.393810000e+00  1.296030445e+01  2.416380000e+00
-1.931040000e+01  2.269810000e+01  1.609185000e+01  7.347600000e+00 -1.073090000e+01 -5.084150000e+00  1.396381115e+01  2.831590000e+00
-1.975641000e+01  2.336970000e+01  1.323955000e+01  7.444590000e+00 -1.091030000e+01 -5.737450000e+00  1.440051731e+01  2.958190000e+00
-2.047356000e+01  2.451100000e+01  1.057870000e+01  7.236440000e+00 -1.053200000e+01 -6.137300000e+00  1.417587878e+01  2.770930000e+00
-2.133365000e+01  2.598967000e+01  8.242310000e+00  6.838350000e+00 -9.729330000e+00 -6.165690000e+00  1.339547036e+01  2.344870000e+00
-2.226200000e+01  2.761265000e+01  6.206190000e+00  6.318000000e+00 -8.695350000e+00 -5.856810000e+00  1.224044358e+01  1.799880000e+00
-2.317815000e+01  2.922076000e+01  4.412050000e+00  5.751850000e+00 -7.588240000e+00 -5.275350000e+00  1.088551709e+01  1.300650000e+00
-2.405829000e+01  3.069414000e+01  2.646570000e+00  5.163710000e+00 -6.526860000e+00 -4.643230000e+00  9.530130495e+00  9.577520000e-01
-2.488307000e+01  3.202655000e+01  8.042500000e-01  4.570930000e+00 -5.521450000e+00 -4.070550000e+00  8.243129774e+00  7.534300000e-01
-2.564556000e+01  3.323010000e+01 -1.120180000e+00  3.991440000e+00 -4.575900000e+00 -3.564680000e+00  7.041121898e+00  6.319490000e-01
-2.144331000e+01  2.172972000e+01  2.321348000e+01  5.463690000e+00 -7.611280000e+00 -3.402520000e+00  9.967980438e+00  1.373820000e+00
-2.147004000e+01  2.158816000e+01  2.112932000e+01  5.944960000e+00 -8.706840000e+00 -3.763680000e+00  1.119450309e+01  1.766520000e+00
-2.167274000e+01  2.157389000e+01  1.866079000e+01  6.344260000e+00 -9.614110000e+00 -4.295210000e+00  1.229347693e+01  2.206760000e+00
-2.208978000e+01  2.180080000e+01  1.601259000e+01  6.547220000e+00 -1.021620000e+01 -4.869410000e+00  1.307470787e+01  2.529430000e+00
-2.268159000e+01  2.242250000e+01  1.331762000e+01  6.553410000e+00 -1.035550000e+01 -5.400380000e+00  1.339207478e+01  2.612820000e+00
-2.339664000e+01  2.349516000e+01  1.077176000e+01  6.393360000e+00 -9.968840000e+00 -5.717240000e+00  1.315065231e+01  2.427970000e+00
-2.420549000e+01  2.487355000e+01  8.490400000e+00  6.084510000e+00 -9.200450000e+00 -5.722600000e+00  1.242649158e+01  2.037380000e+00
-2.503561000e+01  2.640733000e+01  6.498390000e+00  5.695390000e+00 -8.197670000e+00 -5.401610000e+00  1.134974234e+01  1.568760000e+00
-2.584903000e+01  2.789984000e+01  4.670640000e+00  5.258970000e+00 -7.156160000e+00 -4.887360000e+00  1.013674895e+01  1.170450000e+00
-2.665823000e+01  2.927000000e+01  2.829110000e+00  4.760770000e+00 -6.158000000e+00 -4.364890000e+00  8.924021498e+00  9.043220000e-01
-2.743347000e+01  3.052201000e+01  9.501400000e-01  4.233530000e+00 -5.199990000e+00 -3.861960000e+00  7.738049322e+00  7.364920000e-01
-2.815959000e+01  3.165328000e+01 -9.955200000e-01  3.704410000e+00 -4.302720000e+00 -3.409220000e+00  6.622600234e+00  6.299290000e-01
-3.602194560e+01  2.336429100e+00  3.189801200e+01 -5.094560000e-02 -6.857090000e-02  1.030120000e-01  1.338241183e-01  3.674920000e-01
-3.789306540e+01  2.375632200e+00  2.964857120e+01 -7.506540000e-02 -7.126780000e-02  7.657120000e-02  1.287519408e-01  3.665390000e-01
-3.962350860e+01  2.426599900e+00  2.728286890e+01 -9.750860000e-02 -7.340010000e-02  4.686890000e-02  1.307371238e-01  3.680530000e-01
-4.120971800e+01  2.483855000e+00  2.481558420e+01 -1.177180000e-01 -7.454500000e-02  1.458420000e-02  1.400970501e-01  3.713180000e-01
-4.264597600e+01  2.542531500e+00  2.225475800e+01 -1.349760000e-01 -7.436850000e-02 -1.924200000e-02  1.553043751e-01  3.754650000e-01
-4.392657200e+01  2.599571400e+00  1.961358610e+01 -1.485720000e-01 -7.272860000e-02 -5.341390000e-02  1.738278837e-01  3.794630000e-01
-4.504495600e+01  2.653367500e+00  1.690227460e+01 -1.579560000e-01 -6.963250000e-02 -8.672540000e-02  1.931840521e-01  3.823350000e-01
-4.599880200e+01  2.703303600e+00  1.413092900e+01 -1.628020000e-01 -6.519640000e-02 -1.180710000e-01  2.114138662e-01  3.833180000e-01
-4.678303900e+01  2.748635000e+00  1.131249400e+01 -1.630390000e-01 -5.966500000e-02 -1.465060000e-01  2.271687386e-01  3.819650000e-01
-4.739683700e+01  2.789349200e+00  8.456920000e+00 -1.588370000e-01 -5.325080000e-02 -1.712800000e-01  2.395864743e-01  3.780920000e-01
-4.784359300e+01  2.825041700e+00  5.576513000e+00 -1.505930000e-01 -4.625830000e-02 -1.917870000e-01  2.481941485e-01  3.717440000e-01
-4.814412400e+01  2.856842800e+00  2.681600000e+00 -1.391240000e-01 -3.865720000e-02 -2.075000000e-01  2.527965911e-01  3.626740000e-01
-3.576198570e+01  4.590681000e+00  3.168050300e+01 -1.498570000e-02 -2.234190000e-01  1.235030000e-01  2.557217468e-01  4.727550000e-01
-3.762210570e+01  4.662373000e+00  2.942504250e+01 -5.210570000e-02 -2.327270000e-01  7.404250000e-02  2.497181457e-01  4.754070000e-01
-3.934021820e+01  4.760426000e+00  2.705171210e+01 -8.821820000e-02 -2.393740000e-01  2.071210000e-02  2.559518583e-01  4.781350000e-01
-4.091910400e+01  4.873844000e+00  2.457577600e+01 -1.231040000e-01 -2.417560000e-01 -3.522400000e-02  2.735713591e-01  4.793770000e-01
-4.235302400e+01  4.993044000e+00  2.200783970e+01 -1.560240000e-01 -2.388560000e-01 -9.216030000e-02  2.998152735e-01  4.784700000e-01
-4.363488800e+01  5.111692000e+00  1.936055300e+01 -1.858880000e-01 -2.304080000e-01 -1.484470000e-01  3.311777571e-01  4.750750000e-01
-4.475949400e+01  5.226037000e+00  1.664441000e+01 -2.114940000e-01 -2.167630000e-01 -2.025900000e-01  3.643605609e-01  4.690460000e-01
-4.572172600e+01  5.334181000e+00  1.387367800e+01 -2.317260000e-01 -1.987190000e-01 -2.533220000e-01  3.966840250e-01  4.603720000e-01
-4.651765200e+01  5.434338000e+00  1.105743300e+01 -2.456520000e-01 -1.772620000e-01 -2.995670000e-01  4.260365116e-01  4.491740000e-01
-4.714373200e+01  5.525261000e+00  8.209053000e+00 -2.527320000e-01 -1.535390000e-01 -3.404470000e-01  4.509455046e-01  4.356460000e-01
-4.760772700e+01  5.606525000e+00  5.339210000e+00 -2.527270000e-01 -1.283750000e-01 -3.750900000e-01  4.701527255e-01  4.198870000e-01
-4.793852900e+01  5.679204000e+00  2.458984000e+00 -2.465290000e-01 -1.025960000e-01 -4.027160000e-01  4.832004384e-01  4.012520000e-01
-3.536833280e+01  6.802316000e+00  3.137311100e+01  8.566720000e-02 -4.138840000e-01  8.611100000e-02  4.313397025e-01  5.234950000e-01
-3.720091540e+01  6.902607000e+00  2.911648560e+01  4.408460000e-02 -4.321930000e-01  1.448560000e-02  4.346769764e-01  5.269110000e-01
-3.889356222e+01  7.044099000e+00  2.673957060e+01  2.437780000e-03 -4.457010000e-01 -6.042940000e-02  4.497855451e-01  5.301170000e-01
-4.045032320e+01  7.211446000e+00  2.425941500e+01 -4.032320000e-02 -4.507540000e-01 -1.365850000e-01  4.727161846e-01  5.309110000e-01
-4.187028210e+01  7.390347000e+00  2.169034400e+01 -8.428210000e-02 -4.452530000e-01 -2.116560000e-01  5.001519456e-01  5.287280000e-01
-4.314556900e+01  7.570938000e+00  1.904629700e+01 -1.285690000e-01 -4.287620000e-01 -2.837030000e-01  5.299568215e-01  5.235640000e-01
-4.427154500e+01  7.747455000e+00  1.633762000e+01 -1.715450000e-01 -4.021450000e-01 -3.513800000e-01  5.609065809e-01  5.155940000e-01
-4.524011100e+01  7.916008000e+00  1.357620600e+01 -2.111110000e-01 -3.670920000e-01 -4.137940000e-01  5.920725169e-01  5.049860000e-01
-4.604813700e+01  8.073659000e+00  1.077368700e+01 -2.451370000e-01 -3.258410000e-01 -4.703130000e-01  6.224619057e-01  4.918690000e-01
-4.669179000e+01  8.217657000e+00  7.942126000e+00 -2.717900000e-01 -2.806430000e-01 -5.203740000e-01  6.507068445e-01  4.762550000e-01
-4.717667000e+01  8.346772000e+00  5.091822000e+00 -2.896700000e-01 -2.334280000e-01 -5.632780000e-01  6.750403287e-01  4.578240000e-01
-4.753262500e+01  8.463017000e+00  2.234022000e+00 -2.986250000e-01 -1.851830000e-01 -5.976780000e-01  6.933171178e-01  4.353180000e-01
-3.479992600e+01  8.943212000e+00  3.093576820e+01  2.780740000e-01 -6.595880000e-01 -3.023180000e-02  7.164463978e-01  5.647300000e-01
-3.658734300e+01  9.066161000e+00  2.868208900e+01  2.416570000e-01 -6.918390000e-01 -1.229110000e-01  7.430655567e-01  5.691210000e-01
-3.823646700e+01  9.245855000e+00  2.630557300e+01  2.035330000e-01 -7.167450000e-01 -2.174270000e-01  7.761595052e-01  5.730860000e-01
-3.975541300e+01  9.463448000e+00  2.382962400e+01  1.605870000e-01 -7.275520000e-01 -3.103760000e-01  8.071266063e-01  5.737910000e-01
-4.114605800e+01  9.699637000e+00  2.126962500e+01  1.109420000e-01 -7.203630000e-01 -3.983750000e-01  8.306224291e-01  5.706670000e-01
-4.240429760e+01  9.941843000e+00  1.863880000e+01  5.470240000e-02 -6.941570000e-01 -4.792000000e-01  8.452685569e-01  5.639740000e-01
-4.352324758e+01  1.018359100e+01  1.595003600e+01 -6.247580000e-03 -6.504090000e-01 -5.519640000e-01  8.530739457e-01  5.542290000e-01
-4.449684670e+01  1.041763000e+01  1.321329000e+01 -6.884670000e-02 -5.923700000e-01 -6.167100000e-01  8.578888676e-01  5.419010000e-01
-4.531741400e+01  1.063788700e+01  1.043917100e+01 -1.294140000e-01 -5.241130000e-01 -6.738290000e-01  8.634164357e-01  5.272800000e-01
-4.598130800e+01  1.084121900e+01  7.637829000e+00 -1.843080000e-01 -4.497810000e-01 -7.237710000e-01  8.718468026e-01  5.103150000e-01
-4.649323800e+01  1.102438000e+01  4.820397000e+00 -2.302380000e-01 -3.726200000e-01 -7.663030000e-01  8.826525301e-01  4.903780000e-01
-4.687949900e+01  1.118951500e+01  1.996970000e+00 -2.654990000e-01 -2.944850000e-01 -8.003300000e-01  8.931624954e-01  4.655840000e-01
-3.405097300e+01  1.098196700e+01  3.035632700e+01  5.680270000e-01 -9.840330000e-01 -2.286730000e-01  1.158993942e+00  6.023410000e-01
-3.577633800e+01  1.112056000e+01  2.811122600e+01  5.456620000e-01 -1.037440000e+00 -3.417740000e-01  1.220998869e+00  6.082060000e-01
-3.736236600e+01  1.133033000e+01  2.574141200e+01  5.196340000e-01 -1.080670000e+00 -4.545880000e-01  1.282387380e+00  6.131140000e-01
-3.882617300e+01  1.159068000e+01  2.327514200e+01  4.838270000e-01 -1.102320000e+00 -5.618580000e-01  1.328488751e+00  6.137810000e-01
-4.017407000e+01  1.188077000e+01  2.073139400e+01  4.339300000e-01 -1.095230000e+00 -6.586060000e-01  1.349661388e+00  6.096160000e-01
-4.140223200e+01  1.218560000e+01  1.812588200e+01  3.687680000e-01 -1.057400000e+00 -7.421180000e-01  1.343437279e+00  6.010240000e-01
-4.250683100e+01  1.249579700e+01  1.546989900e+01  2.901690000e-01 -9.912030000e-01 -8.121010000e-01  1.313845299e+00  5.888140000e-01
-4.347882600e+01  1.280100400e+01  1.277215500e+01  2.021740000e-01 -9.019960000e-01 -8.698450000e-01  1.269291706e+00  5.738420000e-01
-4.431193100e+01  1.309233900e+01  1.004253900e+01  1.100690000e-01 -7.966610000e-01 -9.174610000e-01  1.220048614e+00  5.567770000e-01
-4.499837830e+01  1.336378400e+01  7.287747000e+00  1.962170000e-02 -6.822160000e-01 -9.569530000e-01  1.175398965e+00  5.378040000e-01
-4.554054300e+01  1.360970700e+01  4.518344000e+00 -6.354300000e-02 -5.642930000e-01 -9.894560000e-01  1.140827541e+00  5.162420000e-01
-4.596216800e+01  1.383430700e+01  1.743540000e+00 -1.351680000e-01 -4.456930000e-01 -1.014060000e+00  1.115898885e+00  4.897250000e-01
-3.312422000e+01  1.288994000e+01  2.963516000e+01  9.557800000e-01 -1.410060000e+00 -5.078400000e-01  1.777550584e+00  6.392820000e-01
-3.476892000e+01  1.303179000e+01  2.740317400e+01  9.550800000e-01 -1.494210000e+00 -6.408260000e-01  1.885603164e+00  6.469530000e-01
-3.627674400e+01  1.326116000e+01  2.504473900e+01  9.482560000e-01 -1.564840000e+00 -7.712610000e-01  1.985637731e+00  6.527940000e-01
-3.766922700e+01  1.355610000e+01  2.259458200e+01  9.257730000e-01 -1.603900000e+00 -8.914180000e-01  2.055280251e+00  6.534720000e-01
-3.895760500e+01  1.389445000e+01  2.007486400e+01  8.803950000e-01 -1.599550000e+00 -9.941360000e-01  2.078932886e+00  6.483760000e-01
-4.014460800e+01  1.426191000e+01  1.750430000e+01  8.093920000e-01 -1.548090000e+00 -1.075700000e+00  2.051542968e+00  6.378950000e-01
-4.122464200e+01  1.464396000e+01  1.489287000e+01  7.143580000e-01 -1.453040000e+00 -1.136130000e+00  1.977984826e+00  6.229090000e-01
-4.218894400e+01  1.502829000e+01  1.224875000e+01  6.000560000e-01 -1.322710000e+00 -1.178250000e+00  1.870267898e+00  6.044830000e-01
-4.303065400e+01  1.540207000e+01  9.577790000e+00  4.733460000e-01 -1.167930000e+00 -1.206210000e+00  1.744436724e+00  5.836600000e-01
-4.373893000e+01  1.575331200e+01  6.886800000e+00  3.420700000e-01 -9.996880000e-01 -1.224500000e+00  1.617339863e+00  5.611250000e-01
-4.431453200e+01  1.607489500e+01  4.181820000e+00  2.144680000e-01 -8.271050000e-01 -1.236180000e+00  1.502744222e+00  5.365720000e-01
-4.477816930e+01  1.636888500e+01  1.471050000e+00  9.783070000e-02 -6.551150000e-01 -1.241550000e+00  1.407193274e+00  5.076260000e-01
-3.202680000e+01  1.463935000e+01  2.877975900e+01  1.435200000e+00 -1.957650000e+00 -8.602410000e-01  2.575307193e+00  6.762150000e-01
-3.357763000e+01  1.477317000e+01  2.656619000e+01  1.461370000e+00 -2.083830000e+00 -1.012810000e+00  2.739294406e+00  6.857420000e-01
-3.499046000e+01  1.500844000e+01  2.422309000e+01  1.478540000e+00 -2.192560000e+00 -1.160910000e+00  2.888098321e+00  6.923560000e-01
-3.629779000e+01  1.532619000e+01  2.179295000e+01  1.473210000e+00 -2.256810000e+00 -1.294050000e+00  2.989666283e+00  6.930540000e-01
-3.751558000e+01  1.570873000e+01  1.930303000e+01  1.435420000e+00 -2.258270000e+00 -1.401970000e+00  3.020882959e+00  6.872440000e-01
-3.864901000e+01  1.613712000e+01  1.677390000e+01  1.360990000e+00 -2.190880000e+00 -1.479100000e+00  2.973211356e+00  6.752320000e-01
-3.969386000e+01  1.659559000e+01  1.421680000e+01  1.251140000e+00 -2.059410000e+00 -1.525200000e+00  2.851798711e+00  6.578050000e-01
-4.064392000e+01  1.706857000e+01  1.163975000e+01  1.111080000e+00 -1.876430000e+00 -1.544250000e+00  2.672114588e+00  6.359880000e-01
-4.148828600e+01  1.753495000e+01  9.043770000e+00  9.487140000e-01 -1.658050000e+00 -1.543230000e+00  2.455757905e+00  6.109310000e-01
-4.221709900e+01  1.798034000e+01  6.432200000e+00  7.739010000e-01 -1.420660000e+00 -1.529500000e+00  2.226335070e+00  5.836760000e-01
-4.282674900e+01  1.839118000e+01  3.808260000e+00  5.972510000e-01 -1.177820000e+00 -1.509340000e+00  2.005511392e+00  5.544990000e-01
-4.333246600e+01  1.876836900e+01  1.177480000e+00  4.295340000e-01 -9.376310000e-01 -1.484720000e+00  1.807773445e+00  5.215600000e-01
-3.077341000e+01  1.620956000e+01  2.780582000e+01  1.994590000e+00 -2.640440000e+00 -1.273180000e+00  3.545602907e+00  7.144000000e-01
-3.221686000e+01  1.631998000e+01  2.561497000e+01  2.050140000e+00 -2.821020000e+00 -1.445030000e+00  3.774829739e+00  7.263310000e-01
-3.352539000e+01  1.654680000e+01  2.329203000e+01  2.092610000e+00 -2.979200000e+00 -1.611970000e+00  3.981594722e+00  7.341730000e-01
-3.473682000e+01  1.687805000e+01  2.088292000e+01  2.105180000e+00 -3.076950000e+00 -1.760080000e+00  4.122776460e+00  7.352260000e-01
-3.587358000e+01  1.729600000e+01  1.842483000e+01  2.075420000e+00 -3.087000000e+00 -1.875170000e+00  4.165717190e+00  7.286740000e-01
-3.694468000e+01  1.778610000e+01  1.594186000e+01  1.998320000e+00 -2.999900000e+00 -1.948140000e+00  4.097307932e+00  7.147750000e-01
-3.794604000e+01  1.832787000e+01  1.344760000e+01  1.874960000e+00 -2.823130000e+00 -1.977400000e+00  3.923728935e+00  6.945360000e-01
-3.887237000e+01  1.889844000e+01  1.094695000e+01  1.710630000e+00 -2.574560000e+00 -1.968050000e+00  3.664401042e+00  6.691500000e-01
-3.971218000e+01  1.947164000e+01  8.439600000e+00  1.513820000e+00 -2.277360000e+00 -1.929400000e+00  3.346730333e+00  6.398040000e-01
-4.045563000e+01  2.002425000e+01  5.923490000e+00  1.295370000e+00 -1.954750000e+00 -1.873610000e+00  3.001573826e+00  6.076530000e-01
-4.109659000e+01  2.053919000e+01  3.396860000e+00  1.068410000e+00 -1.625810000e+00 -1.810440000e+00  2.657527249e+00  5.732400000e-01
-4.164540300e+01  2.101318000e+01  8.616800000e-01  8.465970000e-01 -1.302820000e+00 -1.745220000e+00  2.336634178e+00  5.351870000e-01
-2.938328000e+01  1.758639000e+01  2.673672000e+01  2.617720000e+00 -3.461610000e+00 -1.728280000e+00  4.671418794e+00  7.595010000e-01
-3.070943000e+01  1.765923000e+01  2.457604000e+01  2.701570000e+00 -3.708770000e+00 -1.919960000e+00  4.973902068e+00  7.770830000e-01
-3.190400000e+01  1.786408000e+01  2.227459000e+01  2.768000000e+00 -3.928920000e+00 -2.108410000e+00  5.248202463e+00  7.894550000e-01
-3.301237000e+01  1.819569000e+01  1.988770000e+01  2.795630000e+00 -4.067310000e+00 -2.276300000e+00  5.435080443e+00  7.928700000e-01
-3.406263000e+01  1.864661000e+01  1.746058000e+01  2.771370000e+00 -4.086390000e+00 -2.403420000e+00  5.491402608e+00  7.853460000e-01
-3.506357000e+01  1.919988000e+01  1.502395000e+01  2.690430000e+00 -3.974120000e+00 -2.476050000e+00  5.400265453e+00  7.670600000e-01
-3.601478000e+01  1.983278000e+01  1.259624000e+01  2.554220000e+00 -3.740220000e+00 -2.488760000e+00  5.167902069e+00  7.401610000e-01
-3.690851000e+01  2.051257000e+01  1.018059000e+01  2.367490000e+00 -3.411430000e+00 -2.446410000e+00  4.819521287e+00  7.074150000e-01
-3.773763000e+01  2.120590000e+01  7.773690000e+00  2.138370000e+00 -3.020100000e+00 -2.363310000e+00  4.390770368e+00  6.713420000e-01
-3.848816000e+01  2.187976000e+01  5.366210000e+00  1.878840000e+00 -2.597240000e+00 -2.255290000e+00  3.919442352e+00  6.334750000e-01
-3.915434000e+01  2.251147000e+01  2.950780000e+00  1.602660000e+00 -2.168530000e+00 -2.139020000e+00  3.441866935e+00  5.938950000e-01
-3.974064000e+01  2.309490000e+01  5.253700000e-01  1.327360000e+00 -1.750100000e+00 -2.022830000e+00  2.986063594e+00  5.508560000e-01
-2.788178000e+01  1.876364000e+01  2.561430000e+01  3.281220000e+00 -4.404360000e+00 -2.201700000e+00  5.917117084e+00  8.261320000e-01
-2.907580000e+01  1.878352000e+01  2.349580000e+01  3.391200000e+00 -4.733480000e+00 -2.413200000e+00  6.303142438e+00  8.587870000e-01
-3.014720000e+01  1.895226000e+01  2.121970000e+01  3.477800000e+00 -5.027740000e+00 -2.629300000e+00  6.654808851e+00  8.864780000e-01
-3.114853000e+01  1.927409000e+01  1.884965000e+01  3.516470000e+00 -5.217910000e+00 -2.826350000e+00  6.897854764e+00  8.993270000e-01
-3.210956000e+01  1.975435000e+01  1.644484000e+01  3.493440000e+00 -5.246650000e+00 -2.977160000e+00  6.971007167e+00  8.909900000e-01
-3.303762000e+01  2.038111000e+01  1.405006000e+01  3.406380000e+00 -5.095890000e+00 -3.055940000e+00  6.849108619e+00  8.619560000e-01
-3.393224000e+01  2.112042000e+01  1.168853000e+01  3.256760000e+00 -4.788580000e+00 -3.053470000e+00  6.546805569e+00  8.168170000e-01
-3.478855000e+01  2.192554000e+01  9.362100000e+00  3.049450000e+00 -4.362460000e+00 -2.975900000e+00  6.098047504e+00  7.639940000e-01
-3.559746000e+01  2.275272000e+01  7.064890000e+00  2.791540000e+00 -3.861280000e+00 -2.838910000e+00  5.546313082e+00  7.117220000e-01
-3.635033000e+01  2.355837000e+01  4.776120000e+00  2.492670000e+00 -3.326630000e+00 -2.670480000e+00  4.940782764e+00  6.629150000e-01
-3.703440000e+01  2.431603000e+01  2.482640000e+00  2.170600000e+00 -2.787970000e+00 -2.491160000e+00  4.323211680e+00  6.162570000e-01
-3.765386000e+01  2.501691000e+01  1.755000000e-01  1.844140000e+00 -2.266090000e+00 -2.315200000e+00  3.727756332e+00  5.683800000e-01
-2.631729000e+01  1.973147000e+01  2.452453000e+01  3.946710000e+00 -5.416530000e+00 -2.654470000e+00  7.208434507e+00  9.351930000e-01
-2.734055000e+01  1.969569000e+01  2.246610000e+01  4.086450000e+00 -5.843310000e+00 -2.892900000e+00  7.694947418e+00  1.000440000e+00
-2.826829000e+01  1.980632000e+01  2.021493000e+01  4.193710000e+00 -6.246680000e+00 -3.146070000e+00  8.155119314e+00  1.067220000e+00
-2.915914000e+01  2.011331000e+01  1.784770000e+01  4.237860000e+00 -6.498690000e+00 -3.390300000e+00  8.466791788e+00  1.113440000e+00
-3.003086000e+01  2.063124000e+01  1.544820000e+01  4.212140000e+00 -6.532760000e+00 -3.580800000e+00  8.558107573e+00  1.111700000e+00
-3.088539000e+01  2.134146000e+01  1.307476000e+01  4.117610000e+00 -6.336540000e+00 -3.683240000e+00  8.406706143e+00  1.054480000e+00
-3.171866000e+01  2.221139000e+01  1.077056000e+01  3.959340000e+00 -5.931610000e+00 -3.670440000e+00  8.020754342e+00  9.627660000e-01
-3.253222000e+01  2.316822000e+01  8.539760000e+00  3.734780000e+00 -5.383780000e+00 -3.546240000e+00  7.450468903e+00  8.643960000e-01
-3.332335000e+01  2.414147000e+01  6.353050000e+00  3.445650000e+00 -4.760530000e+00 -3.349350000e+00  6.764118215e+00  7.758830000e-01
-3.407405000e+01  2.508886000e+01  4.187780000e+00  3.109950000e+00 -4.104140000e+00 -3.109020000e+00  6.015127555e+00  7.021210000e-01
-3.477408000e+01  2.597797000e+01  2.016850000e+00  2.742920000e+00 -3.451030000e+00 -2.858650000e+00  5.254055387e+00  6.411810000e-01
-3.541934000e+01  2.679797000e+01 -1.730900000e-01  2.367660000e+00 -2.823030000e+00 -2.615690000e+00  4.518533660e+00  5.864170000e-01
-2.474691000e+01  2.049957000e+01  2.361597000e+01  4.568090000e+00 -6.386430000e+00 -3.040030000e+00  8.419959429e+00  1.091850000e+00
-2.552487000e+01  2.040435000e+01  2.163780000e+01  4.750130000e+00 -6.965650000e+00 -3.307200000e+00  9.056576990e+00  1.224850000e+00
-2.626740000e+01  2.046921000e+01  1.938723000e+01  4.896600000e+00 -7.496790000e+00 -3.623770000e+00  9.659723644e+00  1.374220000e+00
-2.703729000e+01  2.070422000e+01  1.698949000e+01  4.948710000e+00 -7.887780000e+00 -3.943510000e+00  1.011227349e+01  1.489350000e+00
-2.782946000e+01  2.123890000e+01  1.453826000e+01  4.911540000e+00 -7.959100000e+00 -4.222740000e+00  1.026167779e+01  1.503510000e+00
-2.860564000e+01  2.210156000e+01  1.216224000e+01  4.819360000e+00 -7.657440000e+00 -4.361760000e+00  1.004428039e+01  1.396290000e+00
-2.937758000e+01  2.315385000e+01  9.912480000e+00  4.656420000e+00 -7.110150000e+00 -4.328520000e+00  9.537953954e+00  1.217670000e+00
-3.015981000e+01  2.427935000e+01  7.762720000e+00  4.406190000e+00 -6.426650000e+00 -4.157280000e+00  8.831722229e+00  1.033400000e+00
-3.093188000e+01  2.542276000e+01  5.693050000e+00  4.088120000e+00 -5.661240000e+00 -3.878650000e+00  7.987883906e+00  8.773780000e-01
-3.168681000e+01  2.651768000e+01  3.645270000e+00  3.709190000e+00 -4.879320000e+00 -3.555930000e+00  7.085936232e+00  7.575360000e-01
-3.240263000e+01  2.753739000e+01  1.588750000e+00  3.295370000e+00 -4.111610000e+00 -3.225250000e+00  6.177947701e+00  6.706030000e-01
-3.307225000e+01  2.847206000e+01 -4.985800000e-01  2.869750000e+00 -3.380940000e+00 -2.911580000e+00  5.305046507e+00  6.038100000e-01
-2.933429300e+01  2.989506400e+01 -3.130993000e+01  3.027070000e-01  3.180640000e-01 -1.742930000e+00  1.797387332e+00  2.356660000e-01
-1.621142000e+00  3.670502700e+01 -3.781631000e+01  9.516580000e-01  3.510270000e-01 -1.588310000e+00  1.884569330e+00  1.678490000e-01
-4.238183000e+00  3.652165200e+01 -3.757869000e+01  9.110170000e-01  3.706520000e-01 -1.631690000e+00  1.905189527e+00  1.753990000e-01
-6.850473000e+00  3.625923000e+01 -3.730534000e+01  8.654270000e-01  3.852300000e-01 -1.671340000e+00  1.921130771e+00  1.828070000e-01
-9.448845000e+00  3.590939200e+01 -3.696841000e+01  8.151550000e-01  3.953920000e-01 -1.706410000e+00  1.932006107e+00  1.900420000e-01
-1.202425000e+01  3.547322100e+01 -3.655723000e+01  7.607500000e-01  4.012210000e-01 -1.736230000e+00  1.937579280e+00  1.970890000e-01
-1.457020600e+01  3.495265500e+01 -3.606620000e+01  7.027940000e-01  4.026550000e-01 -1.760200000e+00  1.937615673e+00  2.038860000e-01
-1.707707200e+01  3.435064400e+01 -3.549766000e+01  6.419280000e-01  3.996440000e-01 -1.777660000e+00  1.931802774e+00  2.103390000e-01
-1.953611800e+01  3.366922700e+01 -3.485498000e+01  5.788820000e-01  3.922270000e-01 -1.787980000e+00  1.919848658e+00  2.163340000e-01
-2.193040400e+01  3.291163700e+01 -3.414563000e+01  5.145960000e-01  3.806370000e-01 -1.790630000e+00  1.901591272e+00  2.217530000e-01
-2.422641500e+01  3.209141100e+01 -3.338738000e+01  4.505850000e-01  3.654110000e-01 -1.785380000e+00  1.877267638e+00  2.264690000e-01
-2.634504100e+01  3.124994400e+01 -3.261213000e+01  3.899590000e-01  3.479440000e-01 -1.773130000e+00  1.848546198e+00  2.303630000e-01
-2.814502800e+01  3.047860700e+01 -3.188301000e+01  3.379720000e-01  3.306070000e-01 -1.757010000e+00  1.819508231e+00  2.333420000e-01
-2.985246900e+01  3.049091900e+01 -3.016287000e+01  3.095310000e-01  3.259190000e-01 -1.775870000e+00  1.831869780e+00  2.415620000e-01
-3.055820000e+01  3.124830300e+01 -2.844618000e+01  3.258000000e-01  3.263030000e-01 -1.815180000e+00  1.872831471e+00  2.494920000e-01
-3.132342900e+01  3.202350500e+01 -2.640695000e+01  3.585710000e-01  3.075050000e-01 -1.845950000e+00  1.905430106e+00  2.567620000e-01
-3.205597500e+01  3.274891100e+01 -2.418158000e+01  4.160250000e-01  2.599110000e-01 -1.861580000e+00  1.925126132e+00  2.610870000e-01
-3.270153700e+01  3.338665200e+01 -2.184482000e+01  5.064630000e-01  1.746520000e-01 -1.859820000e+00  1.935442720e+00  2.607340000e-01
-3.323678600e+01  3.391460800e+01 -1.943180000e+01  6.382140000e-01  4.260800000e-02 -1.841800000e+00  1.949707617e+00  2.544900000e-01
-3.364727200e+01  3.431646300e+01 -1.696160000e+01  8.197280000e-01 -1.455370000e-01 -1.811600000e+00  1.993747620e+00  2.419800000e-01
-3.392410000e+01  3.457817200e+01 -1.445029000e+01  1.058900000e+00 -3.988280000e-01 -1.776290000e+00  2.106071971e+00  2.246900000e-01
-3.405991000e+01  3.469189200e+01 -1.191495000e+01  1.362090000e+00 -7.251080000e-01 -1.745950000e+00  2.330109908e+00  2.088030000e-01
-3.405068000e+01  3.464975000e+01 -9.375940000e+00  1.733320000e+00 -1.130250000e+00 -1.733140000e+00  2.699192017e+00  2.109810000e-01
-3.389986000e+01  3.445505000e+01 -6.852730000e+00  2.173140000e+00 -1.615950000e+00 -1.750930000e+00  3.224839178e+00  2.486470000e-01
-3.362570000e+01  3.412454000e+01 -4.360280000e+00  2.681300000e+00 -2.180460000e+00 -1.807680000e+00  3.900190057e+00  3.226490000e-01
-2.996388900e+01  2.869236000e+01 -3.176837000e+01  2.631110000e-01  2.963600000e-01 -1.692370000e+00  1.738152141e+00  2.328360000e-01
-3.077734300e+01  2.693199000e+01 -3.237806000e+01  2.146570000e-01  2.629900000e-01 -1.611060000e+00  1.646437272e+00  2.284720000e-01
-3.162093900e+01  2.486856700e+01 -3.303420000e+01  1.700610000e-01  2.215670000e-01 -1.505200000e+00  1.530895071e+00  2.227210000e-01
-3.243424600e+01  2.262694000e+01 -3.367304000e+01  1.347540000e-01  1.759400000e-01 -1.379040000e+00  1.396733634e+00  2.159910000e-01
-3.318758700e+01  2.027658800e+01 -3.425669000e+01  1.104130000e-01  1.295880000e-01 -1.236690000e+00  1.248353410e+00  2.089810000e-01
-3.387163980e+01  1.785356230e+01 -3.476791000e+01  9.636020000e-02  8.556230000e-02 -1.081910000e+00  1.089557453e+00  2.024550000e-01
-3.447940970e+01  1.537954910e+01 -3.519929800e+01  9.059030000e-02  4.654910000e-02 -9.182980000e-01  9.239289139e-01  1.971650000e-01
-3.500889200e+01  1.286787580e+01 -3.555264600e+01  9.010800000e-02  1.487580000e-02 -7.496460000e-01  7.551886297e-01  1.937830000e-01
-3.545988570e+01  1.032752498e+01 -3.583111000e+01  9.111430000e-02 -7.475020000e-03 -5.801100000e-01  5.872693621e-01  1.928500000e-01
-3.583186480e+01  7.766973400e+00 -3.604119200e+01  8.913520000e-02 -1.892660000e-02 -4.141920000e-01  4.240970560e-01  1.945570000e-01
-3.612119430e+01  5.191254900e+00 -3.620004400e+01  7.880570000e-02 -1.874510000e-02 -2.570440000e-01  2.695057236e-01  2.005970000e-01
-3.633353790e+01  2.608091400e+00 -3.633863900e+01  5.646210000e-02 -4.408600000e-03 -1.116390000e-01  1.251825499e-01  1.992040000e-01
-2.748333100e+01  2.799656100e+01 -2.940251000e+01  2.976690000e-01  3.285610000e-01 -1.752510000e+00  1.807719686e+00  3.018800000e-01
-3.111997000e+01  3.588313000e+01 -4.441960000e+00  2.924030000e+00 -2.531870000e+00 -1.880260000e+00  4.300662136e+00  3.552700000e-01
-2.859498000e+01  3.760131000e+01 -4.531800000e+00  3.065020000e+00 -2.788690000e+00 -1.930100000e+00  4.571260825e+00  3.729080000e-01
-2.605510000e+01  3.929277000e+01 -4.614460000e+00  3.105900000e+00 -2.927230000e+00 -1.955660000e+00  4.694666795e+00  3.741450000e-01
-2.349699000e+01  4.096140000e+01 -4.680210000e+00  3.059010000e+00 -2.937600000e+00 -1.958110000e+00  4.671320018e+00  3.598880000e-01
-2.090881000e+01  4.259881000e+01 -4.726520000e+00  2.944190000e+00 -2.823190000e+00 -1.941620000e+00  4.517581738e+00  3.324430000e-01
-1.827684000e+01  4.418352000e+01 -4.755990000e+00  2.786160000e+00 -2.598480000e+00 -1.911690000e+00  4.262551409e+00  2.952210000e-01
-1.558568000e+01  4.568671000e+01 -4.772680000e+00  2.610320000e+00 -2.286290000e+00 -1.873880000e+00  3.943642824e+00  2.528440000e-01
-1.282415000e+01  4.707761000e+01 -4.779780000e+00  2.439850000e+00 -1.914390000e+00 -1.832080000e+00  3.601981985e+00  2.114350000e-01
-9.984200000e+00  4.832284000e+01 -4.779520000e+00  2.291800000e+00 -1.512160000e+00 -1.788520000e+00  3.276855031e+00  1.791710000e-01
-7.068540000e+00  4.939193000e+01 -4.772050000e+00  2.176660000e+00 -1.107070000e+00 -1.743550000e+00  3.000569836e+00  1.639900000e-01
-4.084860000e+00  5.026542300e+01 -4.757160000e+00  2.096940000e+00 -7.225770000e-01 -1.696460000e+00  2.792355890e+00  1.669410000e-01
-1.048300000e+00  5.094464500e+01 -4.733950000e+00  2.048400000e+00 -3.763550000e-01 -1.644250000e+00  2.653515349e+00  1.798960000e-01
-3.143468000e+01  3.627557000e+01 -6.932420000e+00  2.395320000e+00 -1.882430000e+00 -1.804720000e+00  3.540920062e+00  2.674360000e-01
-2.892959000e+01  3.803742000e+01 -7.051380000e+00  2.532410000e+00 -2.070580000e+00 -1.843280000e+00  3.754741416e+00  2.774940000e-01
-2.638986000e+01  3.975197000e+01 -7.186590000e+00  2.588140000e+00 -2.163030000e+00 -1.865490000e+00  3.854506503e+00  2.767800000e-01
-2.381237000e+01  4.142052000e+01 -7.319240000e+00  2.574630000e+00 -2.154480000e+00 -1.872740000e+00  3.844172058e+00  2.656380000e-01
-2.118999000e+01  4.303157000e+01 -7.439290000e+00  2.509010000e+00 -2.049430000e+00 -1.867990000e+00  3.739609758e+00  2.461020000e-01
-1.851436000e+01  4.456776000e+01 -7.543710000e+00  2.410640000e+00 -1.860240000e+00 -1.854610000e+00  3.565284886e+00  2.215200000e-01
-1.577504000e+01  4.600574000e+01 -7.632380000e+00  2.298960000e+00 -1.605260000e+00 -1.835480000e+00  3.351277902e+00  1.967750000e-01
-1.296724000e+01  4.731848000e+01 -7.706060000e+00  2.190760000e+00 -1.306520000e+00 -1.812560000e+00  3.129184821e+00  1.779420000e-01
-1.009028000e+01  4.847906200e+01 -7.764770000e+00  2.098720000e+00 -9.869380000e-01 -1.786470000e+00  2.927481395e+00  1.702160000e-01
-7.148560000e+00  4.946594000e+01 -7.808150000e+00  2.029740000e+00 -6.680600000e-01 -1.756850000e+00  2.766346065e+00  1.744340000e-01
-4.151180000e+00  5.026513700e+01 -7.835780000e+00  1.985320000e+00 -3.678630000e-01 -1.721980000e+00  2.653683065e+00  1.856150000e-01
-1.112870000e+00  5.088973500e+01 -7.848990000e+00  1.961030000e+00 -1.002650000e-01 -1.679290000e+00  2.583738887e+00  1.971910000e-01
-3.163318000e+01  3.651909000e+01 -9.462290000e+00  1.935820000e+00 -1.323910000e+00 -1.774190000e+00  2.940728977e+00  2.147200000e-01
-2.915243000e+01  3.830781000e+01 -9.614860000e+00  2.068570000e+00 -1.454190000e+00 -1.806060000e+00  3.107330546e+00  2.162830000e-01
-2.661856000e+01  4.002958000e+01 -9.804170000e+00  2.136440000e+00 -1.508420000e+00 -1.827570000e+00  3.190567171e+00  2.134240000e-01
-2.403019000e+01  4.168429000e+01 -1.000239000e+01  2.150810000e+00 -1.484710000e+00 -1.839590000e+00  3.196003568e+00  2.058910000e-01
-2.138502000e+01  4.326150000e+01 -1.019224000e+01  2.125980000e+00 -1.388500000e+00 -1.843840000e+00  3.138067742e+00  1.954410000e-01
-1.867794000e+01  4.474552000e+01 -1.036544000e+01  2.077060000e+00 -1.230480000e+00 -1.842040000e+00  3.036670979e+00  1.850700000e-01
-1.590673000e+01  4.611666000e+01 -1.051877000e+01  2.018270000e+00 -1.025340000e+00 -1.835470000e+00  2.914392909e+00  1.783240000e-01
-1.306832000e+01  4.735291700e+01 -1.065057000e+01  1.961680000e+00 -7.900830000e-01 -1.824570000e+00  2.793112109e+00  1.780440000e-01
-1.016817000e+01  4.843372100e+01 -1.075982000e+01  1.915830000e+00 -5.422790000e-01 -1.809120000e+00  2.690239074e+00  1.842370000e-01
-7.212480000e+00  4.934191700e+01 -1.084545000e+01  1.885420000e+00 -2.980830000e-01 -1.788150000e+00  2.615557775e+00  1.939920000e-01
-4.211300000e+00  5.006899980e+01 -1.090817000e+01  1.870800000e+00 -7.100020000e-02 -1.760170000e+00  2.569656027e+00  2.038840000e-01
-1.177980000e+00  5.063487400e+01 -1.095145000e+01  1.868620000e+00  1.288740000e-01 -1.722750000e+00  2.544841208e+00  2.113220000e-01
-3.169610000e+01  3.659102700e+01 -1.201508000e+01  1.545900000e+00 -8.579730000e-01 -1.780080000e+00  2.508905994e+00  2.023620000e-01
-2.924596000e+01  3.838828200e+01 -1.220436000e+01  1.674040000e+00 -9.407180000e-01 -1.809360000e+00  2.638397977e+00  1.975980000e-01
-2.672438000e+01  4.009950800e+01 -1.244808000e+01  1.751620000e+00 -9.644920000e-01 -1.832080000e+00  2.711998261e+00  1.935220000e-01
-2.413513000e+01  4.172621600e+01 -1.271041000e+01  1.788870000e+00 -9.297840000e-01 -1.848410000e+00  2.735173430e+00  1.898100000e-01
-2.147857000e+01  4.325843200e+01 -1.296497000e+01  1.797430000e+00 -8.425680000e-01 -1.858970000e+00  2.719640583e+00  1.873940000e-01
-1.875541000e+01  4.468395600e+01 -1.320134000e+01  1.788590000e+00 -7.120440000e-01 -1.864340000e+00  2.679892625e+00  1.875600000e-01
-1.596652000e+01  4.598623800e+01 -1.341168000e+01  1.772480000e+00 -5.497620000e-01 -1.864680000e+00  2.630770820e+00  1.909920000e-01
-1.311477000e+01  4.714736800e+01 -1.359373000e+01  1.757230000e+00 -3.686320000e-01 -1.859730000e+00  2.585022727e+00  1.971880000e-01
-1.020655000e+01  4.815239800e+01 -1.374580000e+01  1.748450000e+00 -1.816020000e-01 -1.848800000e+00  2.551101356e+00  2.048030000e-01
-7.250150000e+00  4.898751422e+01 -1.386595000e+01  1.748850000e+00 -4.857790000e-04 -1.830950000e+00  2.531966521e+00  2.122960000e-01
-4.257070000e+00  4.964917100e+01 -1.395691000e+01  1.758330000e+00  1.651710000e-01 -1.804910000e+00  2.525214042e+00  2.181840000e-01
-1.239080000e+00  5.015715800e+01 -1.402498000e+01  1.774020000e+00  3.081580000e-01 -1.768980000e+00  2.524162941e+00  2.211980000e-01
-3.161996000e+01  3.648835900e+01 -1.456830000e+01  1.225040000e+00 -4.826410000e-01 -1.808300000e+00  2.236875997e+00  2.160680000e-01
-2.920595000e+01  3.827408400e+01 -1.479681000e+01  1.348050000e+00 -5.279160000e-01 -1.837810000e+00  2.339546901e+00  2.099330000e-01
-2.670424000e+01  3.995725100e+01 -1.509474000e+01  1.432760000e+00 -5.287490000e-01 -1.862740000e+00  2.408770855e+00  2.063220000e-01
-2.412314000e+01  4.153975100e+01 -1.541648000e+01  1.487860000e+00 -4.872490000e-01 -1.882480000e+00  2.448442345e+00  2.049400000e-01
-2.146751000e+01  4.301658700e+01 -1.573286000e+01  1.522490000e+00 -4.094130000e-01 -1.896860000e+00  2.466510220e+00  2.057450000e-01
-1.874218000e+01  4.437698100e+01 -1.602570000e+01  1.544820000e+00 -3.030190000e-01 -1.905700000e+00  2.471837745e+00  2.084910000e-01
-1.595137000e+01  4.560799800e+01 -1.628663000e+01  1.561630000e+00 -1.770020000e-01 -1.908630000e+00  2.472425215e+00  2.126530000e-01
-1.310187000e+01  4.669514490e+01 -1.651206000e+01  1.578130000e+00 -4.085510000e-02 -1.905060000e+00  2.474149761e+00  2.174780000e-01
-1.020037000e+01  4.762813530e+01 -1.670032000e+01  1.597630000e+00  9.613530000e-02 -1.894320000e+00  2.479941910e+00  2.221110000e-01
-7.258770000e+00  4.839574300e+01 -1.684965000e+01  1.621530000e+00  2.257430000e-01 -1.875650000e+00  2.489655070e+00  2.257090000e-01
-4.286320000e+00  4.899743500e+01 -1.696328000e+01  1.649280000e+00  3.414350000e-01 -1.848280000e+00  2.500568203e+00  2.274250000e-01
-1.294380000e+00  4.945336600e+01 -1.705010000e+01  1.678720000e+00  4.383660000e-01 -1.811100000e+00  2.508056777e+00  2.265590000e-01
-3.140680300e+01  3.621574400e+01 -1.710081000e+01  9.691970000e-01 -1.912560000e-01 -1.844810000e+00  2.092664717e+00  2.346890000e-01
-2.903456000e+01  3.797163400e+01 -1.736809000e+01  1.086440000e+00 -2.083660000e-01 -1.876090000e+00  2.177953616e+00  2.295920000e-01
-2.655947000e+01  3.960776400e+01 -1.771725000e+01  1.175530000e+00 -1.932360000e-01 -1.903250000e+00  2.245344405e+00  2.268380000e-01
-2.399647000e+01  4.113218200e+01 -1.809620000e+01  1.243530000e+00 -1.488180000e-01 -1.925200000e+00  2.296716939e+00  2.259640000e-01
-2.135470000e+01  4.254225240e+01 -1.846823000e+01  1.297300000e+00 -8.074760000e-02 -1.941230000e+00  2.336210902e+00  2.265940000e-01
-1.864154000e+01  4.383058379e+01 -1.881178000e+01  1.342460000e+00  4.583790000e-03 -1.950780000e+00  2.368071467e+00  2.282210000e-01
-1.586471000e+01  4.498744500e+01 -1.911829000e+01  1.383290000e+00  1.004450000e-01 -1.953290000e+00  2.395604777e+00  2.302680000e-01
-1.303221000e+01  4.600204200e+01 -1.938221000e+01  1.422790000e+00  2.000420000e-01 -1.948210000e+00  2.420716917e+00  2.321500000e-01
-1.015333000e+01  4.686499500e+01 -1.960105000e+01  1.462670000e+00  2.969950000e-01 -1.935050000e+00  2.443773324e+00  2.333140000e-01
-7.238210000e+00  4.757077800e+01 -1.977441000e+01  1.503390000e+00  3.857780000e-01 -1.913410000e+00  2.463766220e+00  2.332620000e-01
-4.298210000e+00  4.811818700e+01 -1.990797000e+01  1.544190000e+00  4.621870000e-01 -1.882970000e+00  2.478651972e+00  2.314890000e-01
-1.342900000e+00  4.852905300e+01 -2.001222000e+01  1.583400000e+00  5.230530000e-01 -1.843220000e+00  2.485598513e+00  2.276050000e-01
-3.106399500e+01  3.578425190e+01 -1.959403000e+01  7.720050000e-01  2.525190000e-02 -1.878030000e+00  2.030671332e+00  2.491520000e-01
-2.874025600e+01  3.749110360e+01 -1.989852000e+01  8.827440000e-01  2.810360000e-02 -1.911520000e+00  2.105691215e+00  2.453000000e-01
-2.629945800e+01  3.906517630e+01 -2.029528000e+01  9.735420000e-01  5.317630000e-02 -1.940280000e+00  2.171473744e+00  2.430430000e-01
-2.376422000e+01  4.051725200e+01 -2.072607000e+01  1.049780000e+00  9.725200000e-02 -1.963070000e+00  2.228259371e+00  2.418960000e-01
-2.114662000e+01  4.184939300e+01 -2.114795000e+01  1.116380000e+00  1.553930000e-01 -1.978950000e+00  2.277431534e+00  2.414480000e-01
-1.845905000e+01  4.305952800e+01 -2.153828000e+01  1.176950000e+00  2.225280000e-01 -1.987280000e+00  2.320347347e+00  2.412560000e-01
-1.570907000e+01  4.413873100e+01 -2.188456000e+01  1.233930000e+00  2.937310000e-01 -1.987560000e+00  2.357807435e+00  2.408900000e-01
-1.290820000e+01  4.508032300e+01 -2.218243000e+01  1.288800000e+00  3.643230000e-01 -1.979430000e+00  2.389953935e+00  2.399720000e-01
-1.006482000e+01  4.587608700e+01 -2.242870000e+01  1.342180000e+00  4.300870000e-01 -1.962700000e+00  2.416322261e+00  2.381780000e-01
-7.189480000e+00  4.652351500e+01 -2.262432000e+01  1.393920000e+00  4.875150000e-01 -1.937320000e+00  2.435958256e+00  2.352410000e-01
-4.293120000e+00  4.702204000e+01 -2.277436000e+01  1.443180000e+00  5.340400000e-01 -1.903360000e+00  2.447600156e+00  2.308740000e-01
-1.384410000e+00  4.739069200e+01 -2.289382000e+01  1.488690000e+00  5.676920000e-01 -1.860820000e+00  2.449719003e+00  2.248760000e-01
-3.060248000e+01  3.520633000e+01 -2.203066000e+01  6.255200000e-01  1.773300000e-01 -1.899660000e+00  2.007841955e+00  2.571770000e-01
-2.833196400e+01  3.684729700e+01 -2.237097000e+01  7.290360000e-01  1.932970000e-01 -1.934970000e+00  2.076768191e+00  2.543180000e-01
-2.593295900e+01  3.834242400e+01 -2.281132000e+01  8.190410000e-01  2.234240000e-01 -1.964320000e+00  2.139929790e+00  2.522390000e-01
-2.343463000e+01  3.970969900e+01 -2.328857000e+01  8.993700000e-01  2.646990000e-01 -1.986570000e+00  2.196677565e+00  2.505300000e-01
-2.085270700e+01  4.095604900e+01 -2.375490000e+01  9.732930000e-01  3.130490000e-01 -2.000900000e+00  2.246975690e+00  2.488700000e-01
-1.820207000e+01  4.208064000e+01 -2.418579000e+01  1.042930000e+00  3.646400000e-01 -2.006790000e+00  2.290823306e+00  2.469630000e-01
-1.549255000e+01  4.307801200e+01 -2.456793000e+01  1.109450000e+00  4.160120000e-01 -2.003930000e+00  2.328020776e+00  2.445480000e-01
-1.273469000e+01  4.394507300e+01 -2.489523000e+01  1.173310000e+00  4.640730000e-01 -1.992230000e+00  2.358177364e+00  2.414230000e-01
-9.938550000e+00  4.467618600e+01 -2.516679000e+01  1.234450000e+00  5.061860000e-01 -1.971790000e+00  2.380766027e+00  2.374350000e-01
-7.114410000e+00  4.526725400e+01 -2.538186000e+01  1.292390000e+00  5.402540000e-01 -1.942860000e+00  2.395172494e+00  2.324690000e-01
-4.271850000e+00  4.571984200e+01 -2.554781000e+01  1.346250000e+00  5.648420000e-01 -1.905810000e+00  2.400738908e+00  2.263760000e-01
-1.418620000e+00  4.605173400e+01 -2.568103000e+01  1.395080000e+00  5.787340000e-01 -1.861030000e+00  2.396792421e+00  2.190700000e-01
-3.003683500e+01  3.449672400e+01 -2.439252000e+01  5.211650000e-01  2.757240000e-01 -1.904520000e+00  1.993698350e+00  2.589220000e-01
-2.782829300e+01  3.605329900e+01 -2.476674000e+01  6.167070000e-01  2.992990000e-01 -1.940740000e+00  2.058246623e+00  2.567520000e-01
-2.548027500e+01  3.745580000e+01 -2.524648000e+01  7.037250000e-01  3.308000000e-01 -1.969480000e+00  2.117429807e+00  2.546360000e-01
-2.302539900e+01  3.872659500e+01 -2.576499000e+01  7.846010000e-01  3.675950000e-01 -1.989990000e+00  2.170434291e+00  2.523040000e-01
-2.048870000e+01  3.987761900e+01 -2.627176000e+01  8.613000000e-01  4.066190000e-01 -2.001760000e+00  2.216803960e+00  2.495750000e-01
-1.788514700e+01  4.091111800e+01 -2.673853000e+01  9.348530000e-01  4.451180000e-01 -2.004530000e+00  2.256151743e+00  2.462930000e-01
-1.522542000e+01  4.182479600e+01 -2.715227000e+01  1.005580000e+00  4.807960000e-01 -1.998270000e+00  2.288108154e+00  2.423440000e-01
-1.252167000e+01  4.261572800e+01 -2.750714000e+01  1.073330000e+00  5.117280000e-01 -1.983140000e+00  2.312303417e+00  2.376640000e-01
-9.782340000e+00  4.328138000e+01 -2.780148000e+01  1.137660000e+00  5.363800000e-01 -1.959480000e+00  2.328419131e+00  2.322160000e-01
-7.018480000e+00  4.381761600e+01 -2.803476000e+01  1.197920000e+00  5.536160000e-01 -1.927760000e+00  2.336185271e+00  2.259780000e-01
-4.237530000e+00  4.422570800e+01 -2.821554000e+01  1.253270000e+00  5.627080000e-01 -1.888540000e+00  2.335360640e+00  2.188880000e-01
-1.447020000e+00  4.452288500e+01 -2.836344000e+01  1.302980000e+00  5.628850000e-01 -1.842440000e+00  2.325764725e+00  2.109230000e-01
-2.940593000e+01  3.366569300e+01 -2.664536000e+01  4.500700000e-01  3.306930000e-01 -1.890360000e+00  1.971137183e+00  2.555600000e-01
-2.727529400e+01  3.511463500e+01 -2.705513000e+01  5.367060000e-01  3.576350000e-01 -1.926130000e+00  2.031239252e+00  2.537890000e-01
-2.498725600e+01  3.640976300e+01 -2.757511000e+01  6.187440000e-01  3.877630000e-01 -1.953110000e+00  2.085148185e+00  2.514950000e-01
-2.258467700e+01  3.757517100e+01 -2.813293000e+01  6.973230000e-01  4.191710000e-01 -1.970930000e+00  2.132259074e+00  2.485960000e-01
-2.009873700e+01  3.862462000e+01 -2.867752000e+01  7.732630000e-01  4.496200000e-01 -1.979520000e+00  2.172232318e+00  2.450180000e-01
-1.754718700e+01  3.956331700e+01 -2.917795000e+01  8.468130000e-01  4.773170000e-01 -1.978950000e+00  2.204805406e+00  2.407260000e-01
-1.494324900e+01  4.039083200e+01 -2.962245000e+01  9.177510000e-01  5.008320000e-01 -1.969450000e+00  2.229760725e+00  2.357290000e-01
-1.229740400e+01  4.110606800e+01 -3.000340000e+01  9.855960000e-01  5.190680000e-01 -1.951400000e+00  2.246951941e+00  2.300550000e-01
-9.619280000e+00  4.170623400e+01 -3.031930000e+01  1.049720000e+00  5.312340000e-01 -1.925300000e+00  2.256302668e+00  2.237440000e-01
-6.918080000e+00  4.218879800e+01 -3.057074000e+01  1.109420000e+00  5.367980000e-01 -1.891740000e+00  2.257796505e+00  2.168270000e-01
-4.200900000e+00  4.255444800e+01 -3.076738000e+01  1.163900000e+00  5.354480000e-01 -1.851380000e+00  2.251438579e+00  2.092870000e-01
-1.474580000e+00  4.281560900e+01 -3.092995000e+01  1.212620000e+00  5.266090000e-01 -1.804950000e+00  2.237321793e+00  2.011340000e-01
-2.879119700e+01  3.272386400e+01 -2.871808000e+01  4.028030000e-01  3.518640000e-01 -1.858080000e+00  1.933525231e+00  2.487850000e-01
-2.676705800e+01  3.402247200e+01 -2.917852000e+01  4.789420000e-01  3.784720000e-01 -1.891520000e+00  1.987580037e+00  2.471120000e-01
-2.455070500e+01  3.518951500e+01 -2.974946000e+01  5.542950000e-01  4.055150000e-01 -1.915460000e+00  2.034864215e+00  2.445480000e-01
-2.220247900e+01  3.624320000e+01 -3.035392000e+01  6.285210000e-01  4.312000000e-01 -1.929920000e+00  2.074985131e+00  2.411330000e-01
-1.976565500e+01  3.719115500e+01 -3.094003000e+01  7.013450000e-01  4.541550000e-01 -1.935030000e+00  2.107719781e+00  2.368800000e-01
-1.726265500e+01  3.803622600e+01 -3.147818000e+01  7.723450000e-01  4.732260000e-01 -1.931180000e+00  2.133053173e+00  2.318710000e-01
-1.471007200e+01  3.878161100e+01 -3.195580000e+01  8.409280000e-01  4.876110000e-01 -1.918800000e+00  2.150980667e+00  2.261960000e-01
-1.211656200e+01  3.942276300e+01 -3.236441000e+01  9.064380000e-01  4.967630000e-01 -1.898410000e+00  2.161565140e+00  2.199450000e-01
-9.491818000e+00  3.996035600e+01 -3.270462000e+01  9.681820000e-01  5.003560000e-01 -1.870620000e+00  2.164936880e+00  2.131970000e-01
-6.845040000e+00  4.039021500e+01 -3.297606000e+01  1.025460000e+00  4.982150000e-01 -1.836060000e+00  2.161227133e+00  2.060070000e-01
-4.182630000e+00  4.071421500e+01 -3.318939000e+01  1.077570000e+00  4.902150000e-01 -1.795390000e+00  2.150556464e+00  1.983780000e-01
-1.511040000e+00  4.094182300e+01 -3.336938000e+01  1.124060000e+00  4.758230000e-01 -1.749380000e+00  2.133131218e+00  1.903320000e-01
-2.832910800e+01  3.167628600e+01 -3.050600000e+01  3.688920000e-01  3.482860000e-01 -1.812000000e+00  1.881682344e+00  2.408120000e-01
-2.643806800e+01  3.275689500e+01 -3.105851000e+01  4.329320000e-01  3.718950000e-01 -1.839510000e+00  1.926014810e+00  2.388250000e-01
-2.429452400e+01  3.377145000e+01 -3.170989000e+01  5.004760000e-01  3.944500000e-01 -1.858890000e+00  1.965079912e+00  2.357800000e-01
-2.199260700e+01  3.470965100e+01 -3.238127000e+01  5.693930000e-01  4.146510000e-01 -1.869270000e+00  1.997577076e+00  2.317790000e-01
-1.959095500e+01  3.556031600e+01 -3.302278000e+01  6.380450000e-01  4.313160000e-01 -1.870780000e+00  2.023104724e+00  2.269430000e-01
-1.712069800e+01  3.632172800e+01 -3.360881000e+01  7.053020000e-01  4.437280000e-01 -1.863810000e+00  2.041600638e+00  2.214060000e-01
-1.460068200e+01  3.699047900e+01 -3.412592000e+01  7.703180000e-01  4.514790000e-01 -1.848920000e+00  2.053223874e+00  2.152890000e-01
-1.203966400e+01  3.756635400e+01 -3.457067000e+01  8.323360000e-01  4.543540000e-01 -1.826670000e+00  2.058140924e+00  2.087080000e-01
-9.448340000e+00  3.804629800e+01 -3.493971000e+01  8.906600000e-01  4.522980000e-01 -1.797710000e+00  2.056601556e+00  2.017580000e-01
-6.833572000e+00  3.842930800e+01 -3.523666000e+01  9.446280000e-01  4.453080000e-01 -1.762660000e+00  2.048802467e+00  1.945000000e-01
-4.203694000e+00  3.871331000e+01 -3.547117000e+01  9.936060000e-01  4.333100000e-01 -1.722170000e+00  2.034915219e+00  1.869450000e-01
-1.565370000e+00  3.890871800e+01 -3.567203000e+01  1.037230000e+00  4.157180000e-01 -1.677030000e+00  2.015216403e+00  1.791190000e-01
-1.725554000e+00  3.439013000e+01 -3.983090000e+01  8.681460000e-01  2.841300000e-01 -1.486900000e+00  1.745072762e+00  1.568160000e-01
-1.855436000e+00  3.195730900e+01 -4.169277000e+01  7.865640000e-01  2.183090000e-01 -1.373770000e+00  1.597994292e+00  1.463860000e-01
-1.998257000e+00  2.941573800e+01 -4.339528000e+01  7.070430000e-01  1.557380000e-01 -1.250280000e+00  1.444771334e+00  1.367840000e-01
-2.145751000e+00  2.677717720e+01 -4.493706000e+01  6.296490000e-01  9.817720000e-02 -1.118060000e+00  1.286916776e+00  1.282490000e-01
-2.293416000e+00  2.405319730e+01 -4.631494000e+01  5.543840000e-01  4.719730000e-02 -9.789400000e-01  1.126007428e+00  1.210880000e-01
-2.440192000e+00  2.125626292e+01 -4.752410400e+01  4.812080000e-01  4.262920000e-03 -8.351040000e-01  9.638350495e-01  1.156780000e-01
-2.588138000e+00  1.840174590e+01 -4.856422800e+01  4.100620000e-01 -2.925410000e-02 -6.892280000e-01  8.025222004e-01  1.124450000e-01
-2.742511000e+00  1.550387020e+01 -4.943257200e+01  3.408890000e-01 -5.212980000e-02 -5.445720000e-01  6.445785364e-01  1.118060000e-01
-2.911332000e+00  1.257772970e+01 -5.013032800e+01  2.735680000e-01 -6.327030000e-02 -4.053280000e-01  4.930855596e-01  1.141310000e-01
-3.099150000e+00  9.623820200e+00 -5.066317900e+01  2.077500000e-01 -6.187980000e-02 -2.751790000e-01  3.503036600e-01  1.192910000e-01
-3.285153000e+00  6.602376900e+00 -5.104708800e+01  1.418470000e-01 -4.692310000e-02 -1.600880000e-01  2.189760637e-01  1.301310000e-01
-3.367539500e+00  3.421956100e+00 -5.131216000e+01  7.366050000e-02 -1.474390000e-02 -5.616000000e-02  9.379337635e-02  1.273470000e-01
-4.366274000e+00  3.423540000e+01 -3.956680000e+01  8.307260000e-01  3.044000000e-01 -1.528800000e+00  1.766350613e+00  1.640550000e-01
-4.542806000e+00  3.182952600e+01 -4.139895000e+01  7.524940000e-01  2.385260000e-01 -1.413950000e+00  1.619381510e+00  1.533400000e-01
-4.746274000e+00  2.931433200e+01 -4.307444000e+01  6.766260000e-01  1.753320000e-01 -1.288440000e+00  1.465824576e+00  1.434670000e-01
-4.960740000e+00  2.670370200e+01 -4.458988000e+01  6.032600000e-01  1.167020000e-01 -1.153880000e+00  1.307280015e+00  1.346690000e-01
-5.177710000e+00  2.401029880e+01 -4.594417000e+01  5.323900000e-01  6.429880000e-02 -1.012170000e+00  1.145452555e+00  1.272380000e-01
-5.394792000e+00  2.124763970e+01 -4.713362200e+01  4.639080000e-01  1.963970000e-02 -8.656220000e-01  9.822921140e-01  1.215280000e-01
-5.614973000e+00  1.842812300e+01 -4.815797500e+01  3.976270000e-01 -1.587700000e-02 -7.169750000e-01  8.200075981e-01  1.179350000e-01
-5.846107000e+00  1.556795350e+01 -4.901452800e+01  3.332930000e-01 -4.104650000e-02 -5.695280000e-01  6.611589686e-01  1.168250000e-01
-6.097816000e+00  1.267521820e+01 -4.970405600e+01  2.704840000e-01 -5.478180000e-02 -4.270560000e-01  5.084677640e-01  1.185420000e-01
-6.367146000e+00  9.735189700e+00 -5.023372800e+01  2.081540000e-01 -5.621030000e-02 -2.927280000e-01  3.635620546e-01  1.228390000e-01
-6.597804000e+00  6.684243300e+00 -5.063021500e+01  1.442960000e-01 -4.425670000e-02 -1.712150000e-01  2.282423434e-01  1.331000000e-01
-6.621361300e+00  3.436484900e+00 -5.093870460e+01  7.563870000e-02 -1.311510000e-02 -6.070460000e-02  9.786862238e-02  1.304600000e-01
-7.004911000e+00  3.400508900e+01 -3.926056000e+01  7.885890000e-01  3.200890000e-01 -1.567560000e+00  1.783696704e+00  1.712590000e-01
-7.228601000e+00  3.162451000e+01 -4.105737000e+01  7.138990000e-01  2.545100000e-01 -1.451370000e+00  1.637346023e+00  1.603270000e-01
-7.491371000e+00  2.913296000e+01 -4.269599000e+01  6.418290000e-01  1.909600000e-01 -1.323990000e+00  1.483697984e+00  1.502370000e-01
-7.770688000e+00  2.654547400e+01 -4.417808000e+01  5.726120000e-01  1.314740000e-01 -1.187080000e+00  1.324510793e+00  1.412120000e-01
-8.053560000e+00  2.387383020e+01 -4.550058000e+01  5.062400000e-01  7.783020000e-02 -1.042580000e+00  1.161597837e+00  1.335390000e-01
-8.335485000e+00  2.113164520e+01 -4.666387400e+01  4.425150000e-01  3.164520000e-02 -8.928740000e-01  9.970180158e-01  1.275590000e-01
-8.618113000e+00  1.833237942e+01 -4.766475900e+01  3.810870000e-01 -5.620580000e-03 -7.407590000e-01  8.330562938e-01  1.236440000e-01
-8.907825000e+00  1.548631150e+01 -4.850246500e+01  3.214750000e-01 -3.268850000e-02 -5.894650000e-01  6.722229540e-01  1.221480000e-01
-9.210321000e+00  1.259659320e+01 -4.917761400e+01  2.628790000e-01 -4.840680000e-02 -4.426140000e-01  5.170645414e-01  1.234020000e-01
-9.511675000e+00  9.645622500e+00 -4.970027200e+01  2.040250000e-01 -5.177750000e-02 -3.032720000e-01  3.691625876e-01  1.272710000e-01
-9.736257000e+00  6.576378600e+00 -5.009840400e+01  1.423430000e-01 -4.132140000e-02 -1.764040000e-01  2.304069421e-01  1.368270000e-01
-9.714153400e+00  3.345763900e+00 -5.042897100e+01  7.544660000e-02 -1.253610000e-02 -6.297100000e-02  9.906911777e-02  1.339970000e-01
-9.629052000e+00  3.368992300e+01 -3.888425000e+01  7.419480000e-01  3.319230000e-01 -1.602250000e+00  1.796625942e+00  1.783980000e-01
-9.898028000e+00  3.133710400e+01 -4.063614000e+01  6.709720000e-01  2.671040000e-01 -1.485140000e+00  1.651420235e+00  1.673320000e-01
-1.021711600e+01  2.886959700e+01 -4.222924000e+01  6.028840000e-01  2.035970000e-01 -1.356240000e+00  1.498101396e+00  1.570890000e-01
-1.055597800e+01  2.630259700e+01 -4.366818000e+01  5.380220000e-01  1.435970000e-01 -1.217180000e+00  1.338512205e+00  1.478830000e-01
-1.089862200e+01  2.365001780e+01 -4.495199000e+01  4.763780000e-01  8.901780000e-02 -1.069990000e+00  1.174622819e+00  1.400000000e-01
-1.123634200e+01  2.092659070e+01 -4.607909500e+01  4.176580000e-01  4.159070000e-02 -9.170950000e-01  1.008578817e+00  1.337780000e-01
-1.156865500e+01  1.814187899e+01 -4.705034700e+01  3.613450000e-01  2.878990000e-03 -7.613470000e-01  8.427501124e-01  1.295840000e-01
-1.189830600e+01  1.530526260e+01 -4.786199200e+01  3.066940000e-01 -2.573740000e-02 -6.059920000e-01  6.796689837e-01  1.277690000e-01
-1.222533700e+01  1.241799320e+01 -4.851865800e+01  2.526630000e-01 -4.300680000e-02 -4.546580000e-01  5.219215203e-01  1.286840000e-01
-1.253139300e+01  9.465005900e+00 -4.902779100e+01  1.976070000e-01 -4.769410000e-02 -3.107910000e-01  3.713681452e-01  1.322390000e-01
-1.273901600e+01  6.409399700e+00 -4.942199300e+01  1.389840000e-01 -3.860030000e-02 -1.799930000e-01  2.306599564e-01  1.409640000e-01
-1.270701580e+01  3.240368500e+00 -4.975916050e+01  7.498420000e-02 -1.163150000e-02 -6.516050000e-02  1.000190622e-01  1.379550000e-01
-1.222869900e+01  3.329202500e+01 -3.842428000e+01  6.913010000e-01  3.400250000e-01 -1.632280000e+00  1.804952097e+00  1.854580000e-01
-1.253981700e+01  3.097050700e+01 -4.012279000e+01  6.241830000e-01  2.765070000e-01 -1.514790000e+00  1.661520172e+00  1.743500000e-01
-1.290974600e+01  2.852852500e+01 -4.166085000e+01  5.602540000e-01  2.135250000e-01 -1.384850000e+00  1.509068253e+00  1.640280000e-01
-1.330403300e+01  2.598544800e+01 -4.304609000e+01  4.999670000e-01  1.534480000e-01 -1.244090000e+00  1.349545560e+00  1.546970000e-01
-1.369867900e+01  2.335532760e+01 -4.428161000e+01  4.433210000e-01  9.832760000e-02 -1.094610000e+00  1.185062394e+00  1.466470000e-01
-1.408407000e+01  2.065202370e+01 -4.536487400e+01  3.899300000e-01  5.002370000e-02 -9.388740000e-01  1.017856652e+00  1.402200000e-01
-1.445490800e+01  1.788621330e+01 -4.629781200e+01  3.390920000e-01  1.021330000e-02 -7.798120000e-01  8.504084027e-01  1.357890000e-01
-1.481116000e+01  1.506538740e+01 -4.707974700e+01  2.898400000e-01 -1.961260000e-02 -6.207470000e-01  6.853602831e-01  1.337130000e-01
-1.515119000e+01  1.219093740e+01 -4.771145300e+01  2.408100000e-01 -3.806260000e-02 -4.654530000e-01  5.254376393e-01  1.343420000e-01
-1.545281700e+01  9.255017000e+00 -4.820385900e+01  1.901830000e-01 -4.388300000e-02 -3.178590000e-01  3.730008513e-01  1.375580000e-01
-1.564975700e+01  6.237387000e+00 -4.858812500e+01  1.352430000e-01 -3.591300000e-02 -1.841250000e-01  2.312626823e-01  1.455180000e-01
-1.563349400e+01  3.143094700e+00 -4.892182410e+01  7.450600000e-02 -1.080530000e-02 -6.782410000e-02  1.013311753e-01  1.424310000e-01
-1.479580700e+01  3.281634100e+01 -3.787710000e+01  6.371930000e-01  3.443410000e-01 -1.657100000e+00  1.808470639e+00  1.923880000e-01
-1.514396800e+01  3.052968400e+01 -3.951288000e+01  5.740320000e-01  2.826840000e-01 -1.539880000e+00  1.667529129e+00  1.813440000e-01
-1.556160700e+01  2.811876200e+01 -4.098652000e+01  5.143930000e-01  2.207620000e-01 -1.409520000e+00  1.516602337e+00  1.710340000e-01
-1.600414400e+01  2.560310100e+01 -4.230871000e+01  4.588560000e-01  1.611010000e-01 -1.267710000e+00  1.357789013e+00  1.616520000e-01
-1.644455800e+01  2.300089900e+01 -4.348555000e+01  4.074420000e-01  1.058990000e-01 -1.116550000e+00  1.193275946e+00  1.534940000e-01
-1.687032900e+01  2.032413710e+01 -4.451759600e+01  3.596710000e-01  5.713710000e-02 -9.585960000e-01  1.025443401e+00  1.469110000e-01
-1.727233000e+01  1.758460770e+01 -4.540484500e+01  3.146700000e-01  1.660770000e-02 -7.968450000e-01  8.568867945e-01  1.422870000e-01
-1.764978400e+01  1.478892080e+01 -4.614872800e+01  2.712160000e-01 -1.407920000e-02 -6.347280000e-01  6.903882795e-01  1.399900000e-01
-1.799731700e+01  1.194153680e+01 -4.675121300e+01  2.276830000e-01 -3.346320000e-02 -4.762130000e-01  5.289027847e-01  1.403470000e-01
-1.829601500e+01  9.038982300e+00 -4.722162700e+01  1.819850000e-01 -4.021770000e-02 -3.256270000e-01  3.751918799e-01  1.432190000e-01
-1.849277700e+01  6.073418800e+00 -4.759138300e+01  1.312230000e-01 -3.338120000e-02 -1.893830000e-01  2.328082922e-01  1.505540000e-01
-1.850310200e+01  3.055743860e+00 -4.791516660e+01  7.389800000e-02 -9.956140000e-03 -7.116660000e-02  1.030763022e-01  1.474660000e-01
-1.732079100e+01  3.226476200e+01 -3.724314000e+01  5.802090000e-01  3.447620000e-01 -1.676140000e+00  1.806916882e+00  1.991060000e-01
-1.770395700e+01  3.001953200e+01 -3.880590000e+01  5.210430000e-01  2.855320000e-01 -1.559900000e+00  1.669222077e+00  1.882530000e-01
-1.816225500e+01  2.764321200e+01 -4.020387000e+01  4.657450000e-01  2.252120000e-01 -1.429870000e+00  1.520581161e+00  1.780680000e-01
-1.864895200e+01  2.516149800e+01 -4.145476000e+01  4.150480000e-01  1.664980000e-01 -1.287760000e+00  1.363199268e+00  1.687280000e-01
-1.912999100e+01  2.259270800e+01 -4.256371000e+01  3.690090000e-01  1.117080000e-01 -1.135710000e+00  1.199367968e+00  1.605350000e-01
-1.958993400e+01  1.994994360e+01 -4.353532400e+01  3.270660000e-01  6.294360000e-02 -9.763240000e-01  1.031572886e+00  1.538550000e-01
-2.001882900e+01  1.724510180e+01 -4.437067800e+01  2.881710000e-01  2.210180000e-02 -8.126780000e-01  8.625407506e-01  1.490870000e-01
-2.041414100e+01  1.448588346e+01 -4.507030600e+01  2.508590000e-01 -9.116540000e-03 -6.483060000e-01  6.952078961e-01  1.466030000e-01
-2.076978600e+01  1.167782940e+01 -4.563733200e+01  2.132140000e-01 -2.917060000e-02 -4.873320000e-01  5.327322141e-01  1.467120000e-01
-2.106911900e+01  8.821463700e+00 -4.608134200e+01  1.728810000e-01 -3.673630000e-02 -3.343420000e-01  3.781824545e-01  1.492740000e-01
-2.127031000e+01  5.916343200e+00 -4.643075900e+01  1.266900000e-01 -3.095680000e-02 -1.957590000e-01  2.352238628e-01  1.561210000e-01
-2.131298490e+01  2.974673570e+00 -4.673813480e+01  7.301510000e-02 -9.126430000e-03 -7.513480000e-02  1.051652734e-01  1.530880000e-01
-1.979596900e+01  3.164125100e+01 -3.652481000e+01  5.210310000e-01  3.412510000e-01 -1.688810000e+00  1.800001323e+00  2.055170000e-01
-2.020918900e+01  2.944195900e+01 -3.800335000e+01  4.658110000e-01  2.849590000e-01 -1.574350000e+00  1.666361138e+00  1.950060000e-01
-2.070619600e+01  2.710779100e+01 -3.931748000e+01  4.148040000e-01  2.267910000e-01 -1.445480000e+00  1.520825087e+00  1.850810000e-01
-2.123007700e+01  2.466554800e+01 -4.048592000e+01  3.689230000e-01  1.695480000e-01 -1.303920000e+00  1.365671289e+00  1.758970000e-01
-2.174772200e+01  2.213668100e+01 -4.151884000e+01  3.282780000e-01  1.156810000e-01 -1.151840000e+00  1.203280485e+00  1.677580000e-01
-2.223775100e+01  1.953637970e+01 -4.242291100e+01  2.922490000e-01  6.737970000e-02 -9.919110000e-01  1.036261036e+00  1.610470000e-01
-2.269138200e+01  1.687363690e+01 -4.319724600e+01  2.596180000e-01  2.663690000e-02 -8.272460000e-01  8.674370149e-01  1.561850000e-01
-2.310332100e+01  1.416023344e+01 -4.384646100e+01  2.286790000e-01 -4.766560000e-03 -6.614610000e-01  6.998910341e-01  1.535540000e-01
-2.346677100e+01  1.140175580e+01 -4.437177000e+01  1.972290000e-01 -2.524420000e-02 -4.987700000e-01  5.369432568e-01  1.534560000e-01
-2.377038400e+01  8.601245400e+00 -4.478387500e+01  1.626160000e-01 -3.345460000e-02 -3.438750000e-01  3.818549323e-01  1.557640000e-01
-2.398061400e+01  5.762340600e+00 -4.510804500e+01  1.213860000e-01 -2.865940000e-02 -2.030450000e-01  2.382922454e-01  1.622440000e-01
-2.405429140e+01  2.896398610e+00 -4.539463870e+01  7.170860000e-02 -8.301390000e-03 -7.963870000e-02  1.074865523e-01  1.593130000e-01
-2.220642600e+01  3.095092100e+01 -3.572571000e+01  4.605740000e-01  3.339210000e-01 -1.694710000e+00  1.787644715e+00  2.115220000e-01
-2.264882000e+01  2.880808100e+01 -3.710796000e+01  4.091800000e-01  2.810810000e-01 -1.582960000e+00  1.658974732e+00  2.015390000e-01
-2.317971500e+01  2.652255300e+01 -3.832721000e+01  3.622850000e-01  2.255530000e-01 -1.456210000e+00  1.517455812e+00  1.920430000e-01
-2.373997300e+01  2.412729600e+01 -3.940413000e+01  3.210270000e-01  1.702960000e-01 -1.316130000e+00  1.365378057e+00  1.831410000e-01
-2.428936100e+01  2.164481800e+01 -4.035396000e+01  2.856390000e-01  1.178180000e-01 -1.164960000e+00  1.205239611e+00  1.751460000e-01
-2.480855100e+01  1.909141920e+01 -4.118140000e+01  2.554490000e-01  7.041920000e-02 -1.005400000e+00  1.039731800e+00  1.684760000e-01
-2.528390200e+01  1.647916140e+01 -4.188959500e+01  2.290980000e-01  3.016140000e-02 -8.405950000e-01  8.717772409e-01  1.635760000e-01
-2.571036100e+01  1.381889600e+01 -4.248120900e+01  2.046390000e-01 -1.104000000e-03 -6.742090000e-01  7.045822272e-01  1.608450000e-01
-2.608441200e+01  1.111625060e+01 -4.296047500e+01  1.795880000e-01 -2.174940000e-02 -5.104750000e-01  5.415806604e-01  1.605890000e-01
-2.639400600e+01  8.379062400e+00 -4.333509800e+01  1.509940000e-01 -3.043760000e-02 -3.540980000e-01  3.861489727e-01  1.627110000e-01
-2.661488800e+01  5.610000300e+00 -4.362909600e+01  1.151120000e-01 -2.649970000e-02 -2.110960000e-01  2.418977632e-01  1.689310000e-01
-2.671613190e+01  2.819900360e+00 -4.388962010e+01  6.986810000e-02 -7.499640000e-03 -8.462010000e-02  1.099925330e-01  1.661490000e-01
-2.451841600e+01  3.022042700e+01 -3.485412000e+01  4.005840000e-01  3.234270000e-01 -1.694120000e+00  1.770625635e+00  2.170480000e-01
-2.499223100e+01  2.814853400e+01 -3.612062000e+01  3.527690000e-01  2.745340000e-01 -1.586620000e+00  1.648386456e+00  2.078650000e-01
-2.556050100e+01  2.592220000e+01 -3.722922000e+01  3.094990000e-01  2.222000000e-01 -1.463220000e+00  1.512010330e+00  1.989940000e-01
-2.615761400e+01  2.357931400e+01 -3.820674000e+01  2.723860000e-01  1.693140000e-01 -1.325740000e+00  1.363982372e+00  1.904940000e-01
-2.674119000e+01  2.114657600e+01 -3.906439000e+01  2.418100000e-01  1.185760000e-01 -1.176390000e+00  1.206824667e+00  1.827350000e-01
-2.728785700e+01  1.864436140e+01 -3.981101000e+01  2.171430000e-01  7.236140000e-02 -1.018010000e+00  1.043423028e+00  1.761690000e-01
-2.778512700e+01  1.608584110e+01 -4.044778800e+01  1.968730000e-01  3.284110000e-02 -8.537880000e-01  8.768075416e-01  1.712720000e-01
-2.822815900e+01  1.348093223e+01 -4.097840000e+01  1.788410000e-01  1.932230000e-03 -6.874000000e-01  7.102862781e-01  1.684740000e-01
-2.861271900e+01  1.083929710e+01 -4.140505000e+01  1.602810000e-01 -1.870290000e-02 -5.230500000e-01  5.473765614e-01  1.681040000e-01
-2.893005500e+01  8.165476200e+00 -4.173737300e+01  1.379450000e-01 -2.772380000e-02 -3.653730000e-01  3.915288766e-01  1.701040000e-01
-2.916221200e+01  5.465584900e+00 -4.199708400e+01  1.077880000e-01 -2.451510000e-02 -2.200840000e-01  2.462848151e-01  1.761610000e-01
-2.928954730e+01  2.747971310e+00 -4.222715380e+01  6.745270000e-02 -6.728690000e-03 -9.015380000e-02  1.127956101e-01  1.735880000e-01
-2.665958300e+01  2.951739900e+01 -3.391458000e+01  3.444170000e-01  3.113990000e-01 -1.689580000e+00  1.752219445e+00  2.221420000e-01
-2.718260400e+01  2.754537600e+01 -3.502763000e+01  2.993960000e-01  2.673760000e-01 -1.588630000e+00  1.638558259e+00  2.141170000e-01
-2.780333500e+01  2.538857600e+01 -3.600749000e+01  2.586650000e-01  2.185760000e-01 -1.470490000e+00  1.508981077e+00  2.060590000e-01
-2.844850700e+01  2.310028700e+01 -3.687566000e+01  2.244930000e-01  1.682870000e-01 -1.336660000e+00  1.365788262e+00  1.981040000e-01
-2.907321300e+01  2.071529600e+01 -3.763990000e+01  1.977870000e-01  1.192960000e-01 -1.189900000e+00  1.212111069e+00  1.906580000e-01
-2.965309700e+01  1.825921800e+01 -3.830315000e+01  1.779030000e-01  7.421800000e-02 -1.033150000e+00  1.050978930e+00  1.842180000e-01
-3.017776200e+01  1.574736280e+01 -3.886674600e+01  1.632380000e-01  3.536280000e-02 -8.697460000e-01  8.856383442e-01  1.793230000e-01
-3.064060800e+01  1.319174845e+01 -3.933338200e+01  1.513920000e-01  4.748450000e-03 -7.033820000e-01  7.195056104e-01  1.764560000e-01
-3.103867900e+01  1.060209140e+01 -3.970623200e+01  1.393210000e-01 -1.590860000e-02 -5.382320000e-01  5.561988048e-01  1.759850000e-01
-3.136654700e+01  7.984442000e+00 -3.999383900e+01  1.234530000e-01 -2.525800000e-02 -3.788390000e-01  3.992462870e-01  1.779070000e-01
-3.161059460e+01  5.343888000e+00 -4.021662900e+01  9.940540000e-02 -2.271200000e-02 -2.306290000e-01  2.521646370e-01  1.838900000e-01
-3.176053350e+01  2.687295510e+00 -4.041247520e+01  6.446650000e-02 -6.004490000e-03 -9.647520000e-02  1.161871238e-01  1.816060000e-01
-2.852212000e+01  2.897025800e+01 -3.290600000e+01  2.968800000e-01  3.012580000e-01 -1.686000000e+00  1.738243400e+00  2.269040000e-01
-2.914211400e+01  2.712333400e+01 -3.380525000e+01  2.528860000e-01  2.623340000e-01 -1.595250000e+00  1.636335240e+00  2.206380000e-01
-2.985192300e+01  2.503637900e+01 -3.463273000e+01  2.120770000e-01  2.173790000e-01 -1.483730000e+00  1.514491663e+00  2.137030000e-01
-3.056921000e+01  2.279046200e+01 -3.538642000e+01  1.787900000e-01  1.694620000e-01 -1.354420000e+00  1.376639666e+00  2.064060000e-01
-3.125175200e+01  2.043683800e+01 -3.605844000e+01  1.542480000e-01  1.218380000e-01 -1.210440000e+00  1.226296024e+00  1.992420000e-01
-3.187804900e+01  1.800942910e+01 -3.664320000e+01  1.379510000e-01  7.742910000e-02 -1.055200000e+00  1.066992401e+00  1.928430000e-01
-3.243889300e+01  1.552576490e+01 -3.713716800e+01  1.281070000e-01  3.876490000e-02 -8.921680000e-01  9.021517950e-01  1.878480000e-01
-3.292892700e+01  1.300102126e+01 -3.754311000e+01  1.220730000e-01  8.021260000e-03 -7.251100000e-01  7.353575117e-01  1.848210000e-01
-3.334653300e+01  1.044401290e+01 -3.786218600e+01  1.164670000e-01 -1.298710000e-02 -5.581860000e-01  5.703550100e-01  1.841980000e-01
-3.368766300e+01  7.861730300e+00 -3.810488200e+01  1.073370000e-01 -2.286970000e-02 -3.958820000e-01  4.108123814e-01  1.860550000e-01
-3.394515570e+01  5.259746800e+00 -3.828848000e+01  8.984430000e-02 -2.105320000e-02 -2.434800000e-01  2.603800028e-01  1.920520000e-01
-3.411710910e+01  2.644413430e+00 -3.845084600e+01  6.089090000e-02 -5.286570000e-03 -1.038460000e-01  1.204974740e-01  1.901590000e-01
-3.842485680e+01  2.599796920e+00 -3.409614400e+01  5.114320000e-02 -3.603080000e-03 -1.211440000e-01  1.315464854e-01  2.087160000e-01
-4.039140110e+01  2.626343190e+00 -3.173288100e+01  4.459890000e-02 -2.956810000e-03 -1.328810000e-01  1.401968786e-01  2.186130000e-01
-4.221971030e+01  2.675550900e+00 -2.925317500e+01  3.628970000e-02 -2.349100000e-03 -1.461750000e-01  1.506306450e-01  2.287620000e-01
-4.390320030e+01  2.735236650e+00 -2.666511200e+01  2.579970000e-02 -1.763350000e-03 -1.601120000e-01  1.621868875e-01  2.390070000e-01
-4.543308720e+01  2.796909600e+00 -2.397979600e+01  1.291280000e-02 -1.190400000e-03 -1.737960000e-01  1.742791068e-01  2.491440000e-01
-4.680238438e+01  2.856164301e+00 -2.120643700e+01 -2.384380000e-03 -6.356990000e-04 -1.864370000e-01  1.864533302e-01  2.589350000e-01
-4.800693750e+01  2.910999309e+00 -1.835531800e+01 -1.993750000e-02 -1.006910000e-04 -1.973180000e-01  1.983227349e-01  2.681030000e-01
-4.904142830e+01  2.960408987e+00 -1.543575600e+01 -3.942830000e-02  4.089870000e-04 -2.057560000e-01  2.095000946e-01  2.763360000e-01
-4.990136360e+01  3.004102694e+00 -1.245909600e+01 -6.036360000e-02  9.026940000e-04 -2.110960000e-01  2.195588766e-01  2.832910000e-01
-5.058411480e+01  3.041787390e+00 -9.436257000e+00 -8.211480000e-02  1.387390000e-03 -2.127570000e-01  2.280576819e-01  2.886100000e-01
-5.109287700e+01  3.073215870e+00 -6.377074000e+00 -1.038770000e-01  1.915870000e-03 -2.102740000e-01  2.345405226e-01  2.919350000e-01
-5.144624400e+01  3.099220600e+00 -3.292296000e+00 -1.252440000e-01  2.620600000e-03 -2.034960000e-01  2.389634890e-01  2.926400000e-01
-3.818913960e+01  5.191294300e+00 -3.399000200e+01  6.586040000e-02 -1.700570000e-02 -2.750020000e-01  2.832894035e-01  2.095010000e-01
-4.013167820e+01  5.248512100e+00 -3.165666400e+01  5.032180000e-02 -1.558790000e-02 -2.966640000e-01  3.013051528e-01  2.186910000e-01
-4.194254850e+01  5.346812100e+00 -2.920687200e+01  3.145150000e-02 -1.438790000e-02 -3.208720000e-01  3.227306135e-01  2.280740000e-01
-4.361411397e+01  5.465020400e+00 -2.664779500e+01  8.886030000e-03 -1.337960000e-02 -3.457950000e-01  3.461678166e-01  2.375200000e-01
-4.513634000e+01  5.587045700e+00 -2.398960800e+01 -1.734000000e-02 -1.255430000e-02 -3.696080000e-01  3.702274432e-01  2.468250000e-01
-4.650481540e+01  5.704176300e+00 -2.124275800e+01 -4.681540000e-02 -1.192370000e-02 -3.907580000e-01  3.937329944e-01  2.557550000e-01
-4.771180520e+01  5.812002600e+00 -1.841692300e+01 -7.880520000e-02 -1.149740000e-02 -4.079230000e-01  4.156243781e-01  2.640410000e-01
-4.875227400e+01  5.908742400e+00 -1.552096000e+01 -1.122740000e-01 -1.125760000e-02 -4.199600000e-01  4.348546725e-01  2.713800000e-01
-4.962089400e+01  5.993439200e+00 -1.256789800e+01 -1.458940000e-01 -1.116080000e-02 -4.258980000e-01  4.503317989e-01  2.774500000e-01
-5.031518500e+01  6.065711700e+00 -9.566305000e+00 -1.781850000e-01 -1.108830000e-02 -4.250050000e-01  4.609794948e-01  2.818900000e-01
-5.084039600e+01  6.125372500e+00 -6.527592000e+00 -2.073960000e-01 -1.082750000e-02 -4.167920000e-01  4.656671632e-01  2.843290000e-01
-5.122133900e+01  6.174357310e+00 -3.461690000e+00 -2.323390000e-01 -9.842690000e-03 -4.010900000e-01  4.636285987e-01  2.839780000e-01
-3.788490610e+01  7.784501300e+00 -3.386580700e+01  6.809390000e-02 -1.609870000e-02 -4.398070000e-01  4.453382362e-01  2.034070000e-01
-3.980456600e+01  7.877364300e+00 -3.156404800e+01  4.343400000e-02 -1.333570000e-02 -4.700480000e-01  4.722387908e-01  2.125270000e-01
-4.159257890e+01  8.026516600e+00 -2.914334900e+01  1.442110000e-02 -1.078340000e-02 -5.033490000e-01  5.036709895e-01  2.218790000e-01
-4.324301740e+01  8.203394140e+00 -2.661300300e+01 -1.901740000e-02 -8.605860000e-03 -5.370030000e-01  5.374085451e-01  2.313590000e-01
-4.475033070e+01  8.385524630e+00 -2.398132300e+01 -5.633070000e-02 -6.975370000e-03 -5.683230000e-01  5.711504494e-01  2.407780000e-01
-4.610541810e+01  8.559549460e+00 -2.126007800e+01 -9.641810000e-02 -6.050540000e-03 -5.950780000e-01  6.028688789e-01  2.499050000e-01
-4.730272500e+01  8.718945080e+00 -1.845949600e+01 -1.377250000e-01 -5.954920000e-03 -6.154960000e-01  6.307447683e-01  2.584660000e-01
-4.833630500e+01  8.860754330e+00 -1.558817500e+01 -1.783050000e-01 -6.745670000e-03 -6.281750000e-01  6.530252734e-01  2.661420000e-01
-4.919887000e+01  8.983405190e+00 -1.265707900e+01 -2.158700000e-01 -8.394810000e-03 -6.320790000e-01  6.679776882e-01  2.725880000e-01
-4.988900200e+01  9.086143200e+00 -9.678522000e+00 -2.480020000e-01 -1.075680000e-02 -6.266220000e-01  6.739998751e-01  2.773960000e-01
-5.041012100e+01  9.169272900e+00 -6.661810000e+00 -2.721210000e-01 -1.342710000e-02 -6.116100000e-01  6.695497874e-01  2.801940000e-01
-5.078934500e+01  9.235750300e+00 -3.617218000e+00 -2.863450000e-01 -1.534970000e-02 -5.872180000e-01  6.534937275e-01  2.800880000e-01
-3.749470060e+01  1.036755902e+01 -3.369712200e+01  6.229940000e-02 -3.440980000e-03 -6.121220000e-01  6.152937497e-01  2.019130000e-01
-3.938469640e+01  1.049906972e+01 -3.142935000e+01  2.930360000e-02  1.069720000e-03 -6.493500000e-01  6.500117443e-01  2.113090000e-01
-4.114138292e+01  1.070047992e+01 -2.903973800e+01 -8.382920000e-03  5.479920000e-03 -6.897380000e-01  6.898107070e-01  2.210680000e-01
-4.276030610e+01  1.093627857e+01 -2.653774000e+01 -5.030610000e-02  9.278570000e-03 -7.297400000e-01  7.315307671e-01  2.310370000e-01
-4.423819380e+01  1.117797200e+01 -2.393488900e+01 -9.519380000e-02  1.197200000e-02 -7.658890000e-01  7.718750862e-01  2.409790000e-01
-4.556806100e+01  1.140712640e+01 -2.124039700e+01 -1.410610000e-01  1.312640000e-02 -7.953970000e-01  8.079151538e-01  2.506010000e-01
-4.674135500e+01  1.161638280e+01 -1.846618500e+01 -1.853550000e-01  1.238280000e-02 -8.161850000e-01  8.370589967e-01  2.595590000e-01
-4.775207200e+01  1.180049852e+01 -1.562080100e+01 -2.250720000e-01  9.498520000e-03 -8.268010000e-01  8.569407918e-01  2.674490000e-01
-4.859390300e+01  1.195733863e+01 -1.271643000e+01 -2.569030000e-01  4.338630000e-03 -8.264300000e-01  8.654504723e-01  2.738370000e-01
-4.926153700e+01  1.208599247e+01 -9.763247000e+00 -2.775370000e-01 -3.007530000e-03 -8.149470000e-01  8.609148880e-01  2.782280000e-01
-4.976068100e+01  1.218692040e+01 -6.772995000e+00 -2.836810000e-01 -1.207960000e-02 -7.927950000e-01  8.421073201e-01  2.801950000e-01
-5.011596900e+01  1.226505620e+01 -3.755748000e+00 -2.729690000e-01 -2.094380000e-02 -7.609480000e-01  8.086980749e-01  2.787510000e-01
-3.701435200e+01  1.293320720e+01 -3.346653400e+01  5.464800000e-02  2.020720000e-02 -7.865340000e-01  7.886890820e-01  2.032650000e-01
-3.886490570e+01  1.310464010e+01 -3.123593900e+01  1.509430000e-02  2.664010000e-02 -8.289390000e-01  8.295043089e-01  2.131860000e-01
-4.057661680e+01  1.335803370e+01 -2.887923300e+01 -2.861680000e-02  3.303370000e-02 -8.742330000e-01  8.753247882e-01  2.236230000e-01
-4.215132600e+01  1.365135550e+01 -2.640808500e+01 -7.532600000e-02  3.835550000e-02 -9.180850000e-01  9.219681219e-01  2.343130000e-01
-4.358488300e+01  1.394963670e+01 -2.383535800e+01 -1.228830000e-01  4.163670000e-02 -9.563580000e-01  9.651188894e-01  2.449160000e-01
-4.487328500e+01  1.423200480e+01 -2.117085900e+01 -1.682850000e-01  4.200480000e-02 -9.858590000e-01  1.001000606e+00  2.550230000e-01
-4.600689600e+01  1.448670800e+01 -1.842542000e+01 -2.078960000e-01  3.870800000e-02 -1.004420000e+00  1.026439766e+00  2.641570000e-01
-4.697760900e+01  1.470813360e+01 -1.560978000e+01 -2.376090000e-01  3.113360000e-02 -1.010780000e+00  1.038799089e+00  2.717770000e-01
-4.778008900e+01  1.489385170e+01 -1.273559000e+01 -2.530890000e-01  1.885170000e-02 -1.004590000e+00  1.036151773e+00  2.773190000e-01
-4.840921600e+01  1.504271234e+01 -9.814099000e+00 -2.502160000e-01  1.712340000e-03 -9.864990000e-01  1.017738304e+00  2.801830000e-01
-4.886822700e+01  1.515323510e+01 -6.856925000e+00 -2.252270000e-01 -1.976490000e-02 -9.579250000e-01  9.842449687e-01  2.798700000e-01
-4.918046600e+01  1.523406460e+01 -3.874590000e+00 -1.754660000e-01 -4.293540000e-02 -9.205900000e-01  9.381458915e-01  2.753760000e-01
-3.644274230e+01  1.547212790e+01 -3.316439500e+01  5.025770000e-02  5.312790000e-02 -9.583950000e-01  9.611812452e-01  2.071260000e-01
-3.824032527e+01  1.568432340e+01 -3.097603000e+01  6.674730000e-03  6.132340000e-02 -1.004030000e+00  1.005923134e+00  2.176360000e-01
-3.989358930e+01  1.598830220e+01 -2.865495000e+01 -3.958930000e-02  6.930220000e-02 -1.051950000e+00  1.054973417e+00  2.287730000e-01
-4.140752980e+01  1.633635670e+01 -2.621611000e+01 -8.652980000e-02  7.535670000e-02 -1.097110000e+00  1.103094008e+00  2.401010000e-01
-4.278204200e+01  1.668785870e+01 -2.367588000e+01 -1.310420000e-01  7.785870000e-02 -1.134880000e+00  1.145070564e+00  2.511270000e-01
-4.401106100e+01  1.701831030e+01 -2.104386000e+01 -1.690610000e-01  7.531030000e-02 -1.161860000e+00  1.176508361e+00  2.612760000e-01
-4.508782500e+01  1.731336800e+01 -1.833199000e+01 -1.958250000e-01  6.636800000e-02 -1.175990000e+00  1.194028736e+00  2.698990000e-01
-4.600313500e+01  1.756586090e+01 -1.555043000e+01 -2.061350000e-01  4.986090000e-02 -1.176430000e+00  1.195393363e+00  2.762910000e-01
-4.674972800e+01  1.777284460e+01 -1.271158000e+01 -1.947280000e-01  2.484460000e-02 -1.163580000e+00  1.180023163e+00  2.797630000e-01
-4.732280600e+01  1.793081451e+01 -9.827620000e+00 -1.568060000e-01 -9.185490000e-03 -1.139120000e+00  1.149898634e+00  2.796710000e-01
-4.772344450e+01  1.804115080e+01 -6.911220000e+00 -8.844450000e-02 -5.184920000e-02 -1.105720000e+00  1.110462736e+00  2.755320000e-01
-4.797782690e+01  1.811323800e+01 -3.973060000e+00  1.317310000e-02 -9.976200000e-02 -1.065960000e+00  1.070699168e+00  2.665010000e-01
-3.577858450e+01  1.797311770e+01 -3.278851000e+01  5.341550000e-02  9.311770000e-02 -1.123510000e+00  1.128626972e+00  2.128160000e-01
-3.750814175e+01  1.822650100e+01 -3.064439000e+01  8.858250000e-03  1.025010000e-01 -1.170390000e+00  1.174903262e+00  2.237950000e-01
-3.908795570e+01  1.857908500e+01 -2.836063000e+01 -3.595570000e-02  1.110850000e-01 -1.218630000e+00  1.224210671e+00  2.354160000e-01
-4.052711800e+01  1.897730500e+01 -2.595763000e+01 -7.811800000e-02  1.163050000e-01 -1.262630000e+00  1.270379389e+00  2.470230000e-01
-4.182555300e+01  1.937769000e+01 -2.345145000e+01 -1.135530000e-01  1.156900000e-01 -1.297450000e+00  1.307537748e+00  2.579350000e-01
-4.297914400e+01  1.974891700e+01 -2.085469000e+01 -1.371440000e-01  1.069170000e-01 -1.319690000e+00  1.331097824e+00  2.673860000e-01
-4.398206700e+01  2.007683900e+01 -1.818060000e+01 -1.430670000e-01  8.783900000e-02 -1.327600000e+00  1.338172491e+00  2.745420000e-01
-4.482513200e+01  2.035249810e+01 -1.543804000e+01 -1.251320000e-01  5.649810000e-02 -1.321040000e+00  1.328155388e+00  2.785610000e-01
-4.549928800e+01  2.057024790e+01 -1.264140000e+01 -7.728800000e-02  1.124790000e-02 -1.301400000e+00  1.303741504e+00  2.786920000e-01
-4.600029655e+01  2.072701160e+01 -9.802550000e+00  5.703450000e-03 -4.898840000e-02 -1.271650000e+00  1.272606033e+00  2.744010000e-01
-4.633030800e+01  2.082400100e+01 -6.935670000e+00  1.276920000e-01 -1.239990000e-01 -1.235870000e+00  1.248621502e+00  2.654420000e-01
-4.651162300e+01  2.087204900e+01 -4.051730000e+00  2.913770000e-01 -2.099510000e-01 -1.197630000e+00  1.250318997e+00  2.515990000e-01
-3.502255850e+01  2.042557800e+01 -3.233713000e+01  6.744150000e-02  1.375780000e-01 -1.278130000e+00  1.287280995e+00  2.195360000e-01
-3.667073490e+01  2.071816800e+01 -3.024034000e+01  2.526510000e-02  1.471680000e-01 -1.324340000e+00  1.332731474e+00  2.307030000e-01
-3.816091290e+01  2.111679300e+01 -2.799673000e+01 -1.391290000e-02  1.547930000e-01 -1.370730000e+00  1.379512658e+00  2.424060000e-01
-3.950827220e+01  2.156087400e+01 -2.563130000e+01 -4.627220000e-02  1.568740000e-01 -1.411300000e+00  1.420745670e+00  2.537470000e-01
-4.071482080e+01  2.200191400e+01 -2.316302000e+01 -6.682080000e-02  1.499140000e-01 -1.441020000e+00  1.450337156e+00  2.638400000e-01
-4.177850510e+01  2.240757600e+01 -2.060570000e+01 -6.950510000e-02  1.305760000e-01 -1.456700000e+00  1.464191224e+00  2.717230000e-01
-4.269257600e+01  2.275869690e+01 -1.797219000e+01 -4.757600000e-02  9.569690000e-02 -1.457190000e+00  1.461103716e+00  2.764050000e-01
-4.344802600e+01  2.304633130e+01 -1.527422000e+01  5.974000000e-03  4.233130000e-02 -1.443220000e+00  1.443853038e+00  2.769780000e-01
-4.403626020e+01  2.326391630e+01 -1.252542000e+01  9.773980000e-02 -3.208370000e-02 -1.417420000e+00  1.421148088e+00  2.727740000e-01
-4.445283900e+01  2.340766300e+01 -9.740160000e+00  2.331610000e-01 -1.293370000e-01 -1.384260000e+00  1.409704884e+00  2.636470000e-01
-4.470029000e+01  2.347749600e+01 -6.931970000e+00  4.157100000e-01 -2.495040000e-01 -1.349370000e+00  1.433829295e+00  2.500650000e-01
-4.479819900e+01  2.348651700e+01 -4.112760000e+00  6.478010000e-01 -3.884830000e-01 -1.317260000e+00  1.518466030e+00  2.334490000e-01
-3.417641860e+01  2.280858400e+01 -3.181974000e+01  9.458140000e-02  1.835840000e-01 -1.418740000e+00  1.433691708e+00  2.264230000e-01
-3.572279700e+01  2.314305500e+01 -2.977559000e+01  5.820300000e-02  1.920550000e-01 -1.462590000e+00  1.476293406e+00  2.373850000e-01
-3.710931780e+01  2.358472600e+01 -2.757528000e+01  2.868220000e-02  1.967260000e-01 -1.505280000e+00  1.518351628e+00  2.486670000e-01
-3.834929640e+01  2.406982900e+01 -2.524955000e+01  1.070360000e-02  1.928290000e-01 -1.540550000e+00  1.552608094e+00  2.591370000e-01
-3.945097680e+01  2.454569000e+01 -2.282049000e+01  1.002320000e-02  1.756900000e-01 -1.563490000e+00  1.573362139e+00  2.676860000e-01
-4.041153590e+01  2.497679800e+01 -2.030441000e+01  3.346410000e-02  1.407980000e-01 -1.571410000e+00  1.578059983e+00  2.731780000e-01
-4.122352220e+01  2.534281180e+01 -1.771591000e+01  8.847780000e-02  8.381180000e-02 -1.563910000e+00  1.568651404e+00  2.745360000e-01
-4.188037300e+01  2.563161279e+01 -1.506785000e+01  1.826270000e-01  6.127860000e-04 -1.542850000e+00  1.553621292e+00  2.709160000e-01
-4.237321300e+01  2.583761900e+01 -1.237329000e+01  3.227870000e-01 -1.123810000e-01 -1.512290000e+00  1.550432837e+00  2.619790000e-01
-4.269670700e+01  2.595415000e+01 -9.647630000e+00  5.142930000e-01 -2.578500000e-01 -1.478330000e+00  1.586330199e+00  2.484450000e-01
-4.285394100e+01  2.598286400e+01 -6.906080000e+00  7.600590000e-01 -4.361360000e-01 -1.448180000e+00  1.692669373e+00  2.324670000e-01
-4.286412000e+01  2.593572400e+01 -4.160380000e+00  1.061880000e+00 -6.432760000e-01 -1.427280000e+00  1.891698006e+00  2.191320000e-01
-3.323940500e+01  2.508488100e+01 -3.126561000e+01  1.355950000e-01  2.278810000e-01 -1.541610000e+00  1.564249707e+00  2.326260000e-01
-3.465972600e+01  2.546689500e+01 -2.928693000e+01  1.082740000e-01  2.338950000e-01 -1.581930000e+00  1.602789024e+00  2.429420000e-01
-3.592310640e+01  2.595559600e+01 -2.713578000e+01  9.189360000e-02  2.335960000e-01 -1.619780000e+00  1.639115241e+00  2.533510000e-01
-3.704518710e+01  2.648084200e+01 -2.485164000e+01  9.181290000e-02  2.208420000e-01 -1.648640000e+00  1.665897550e+00  2.624280000e-01
-3.803154200e+01  2.698769200e+01 -2.246191000e+01  1.144580000e-01  1.896920000e-01 -1.663910000e+00  1.678594703e+00  2.688330000e-01
-3.887982200e+01  2.743735900e+01 -1.998759000e+01  1.671780000e-01  1.343590000e-01 -1.663590000e+00  1.677358791e+00  2.713250000e-01
-3.958411300e+01  2.781021510e+01 -1.744330000e+01  2.578870000e-01  4.921510000e-02 -1.648300000e+00  1.669077806e+00  2.688470000e-01
-4.013556800e+01  2.809289230e+01 -1.484518000e+01  3.944320000e-01 -7.110770000e-02 -1.621180000e+00  1.669987275e+00  2.608090000e-01
-4.052733000e+01  2.827665600e+01 -1.220587000e+01  5.836700000e-01 -2.313440000e-01 -1.587870000e+00  1.707489927e+00  2.475700000e-01
-4.075434700e+01  2.835496500e+01 -9.542140000e+00  8.306530000e-01 -4.350350000e-01 -1.556140000e+00  1.816813573e+00  2.315660000e-01
-4.081955000e+01  2.833007400e+01 -6.870310000e+00  1.137450000e+00 -6.829260000e-01 -1.534810000e+00  2.028748915e+00  2.186490000e-01
-4.074356000e+01  2.821549200e+01 -4.202310000e+00  1.505440000e+00 -9.715080000e-01 -1.530210000e+00  2.356208826e+00  2.197520000e-01
-3.221121400e+01  2.719032600e+01 -3.074009000e+01  1.887860000e-01  2.673260000e-01 -1.643090000e+00  1.675365062e+00  2.373850000e-01
-3.346357100e+01  2.763720200e+01 -2.884886000e+01  1.734290000e-01  2.702020000e-01 -1.679860000e+00  1.710267920e+00  2.467690000e-01
-3.458247700e+01  2.818660600e+01 -2.675395000e+01  1.725230000e-01  2.636060000e-01 -1.712950000e+00  1.741680226e+00  2.560370000e-01
-3.557781400e+01  2.875989300e+01 -2.450844000e+01  1.921860000e-01  2.398930000e-01 -1.735440000e+00  1.762451731e+00  2.633870000e-01
-3.644669300e+01  2.929980900e+01 -2.215215000e+01  2.393070000e-01  1.918090000e-01 -1.743150000e+00  1.769923856e+00  2.673180000e-01
-3.718233500e+01  2.976929900e+01 -1.971198000e+01  3.216650000e-01  1.122990000e-01 -1.734980000e+00  1.768116240e+00  2.665490000e-01
-3.777957700e+01  3.014740381e+01 -1.720675000e+01  4.474230000e-01 -5.596190000e-03 -1.712750000e+00  1.770234793e+00  2.601670000e-01
-3.822751000e+01  3.041844600e+01 -1.465003000e+01  6.244900000e-01 -1.685540000e-01 -1.681030000e+00  1.801182965e+00  2.480770000e-01
-3.852045400e+01  3.057454200e+01 -1.205911000e+01  8.595460000e-01 -3.824580000e-01 -1.647110000e+00  1.896856558e+00  2.318800000e-01
-3.865484000e+01  3.060827300e+01 -9.451110000e+00  1.157160000e+00 -6.517270000e-01 -1.620510000e+00  2.095189731e+00  2.172150000e-01
-3.863227000e+01  3.052041400e+01 -6.843100000e+00  1.518730000e+00 -9.775860000e-01 -1.611700000e+00  2.420700744e+00  2.161300000e-01
-3.847395000e+01  3.032875000e+01 -4.247490000e+00  1.945050000e+00 -1.357250000e+00 -1.627590000e+00  2.876525034e+00  2.423810000e-01
-3.109849400e+01  2.903277900e+01 -3.034280000e+01  2.495060000e-01  2.997790000e-01 -1.720800000e+00  1.764447033e+00  2.404550000e-01
-3.211761200e+01  2.959028700e+01 -2.856098000e+01  2.483880000e-01  3.002870000e-01 -1.755980000e+00  1.798703600e+00  2.489010000e-01
-3.306878600e+01  3.023239700e+01 -2.651809000e+01  2.642140000e-01  2.873970000e-01 -1.786090000e+00  1.828256974e+00  2.570300000e-01
-3.393256300e+01  3.087303200e+01 -2.429948000e+01  3.034370000e-01  2.520320000e-01 -1.803480000e+00  1.846113283e+00  2.627000000e-01
-3.468833000e+01  3.145784300e+01 -2.196268000e+01  3.736700000e-01  1.858430000e-01 -1.804680000e+00  1.852305804e+00  2.642750000e-01
-3.531998300e+01  3.195353810e+01 -1.954275000e+01  4.830170000e-01  8.053810000e-02 -1.789750000e+00  1.855531425e+00  2.604790000e-01
-3.581719800e+01  3.233984140e+01 -1.705880000e+01  6.398020000e-01 -7.215860000e-02 -1.761800000e+00  1.875764565e+00  2.506490000e-01
-3.617106900e+01  3.260175900e+01 -1.452790000e+01  8.519310000e-01 -2.802410000e-01 -1.726900000e+00  1.945894411e+00  2.354110000e-01
-3.637513000e+01  3.272925900e+01 -1.197004000e+01  1.125870000e+00 -5.507410000e-01 -1.694040000e+00  2.107289830e+00  2.183010000e-01
-3.642519000e+01  3.271703000e+01 -9.400770000e+00  1.465810000e+00 -8.889700000e-01 -1.674570000e+00  2.396466420e+00  2.101050000e-01
-3.632437000e+01  3.256640000e+01 -6.840640000e+00  1.872630000e+00 -1.296600000e+00 -1.680340000e+00  2.830451765e+00  2.280610000e-01
-3.609336000e+01  3.229462000e+01 -4.302740000e+00  2.346640000e+00 -1.771380000e+00 -1.719140000e+00  3.405869747e+00  2.811630000e-01
-3.158904000e+01  3.148318000e+01 -5.056550000e+00  2.368960000e+00 -2.473820000e+00 -2.672650000e+00  4.344515496e+00  5.225310000e-01
-3.180364000e+01  3.184627000e+01 -7.304420000e+00  1.938360000e+00 -1.894730000e+00 -2.533420000e+00  3.710183036e+00  5.009280000e-01
-3.191260000e+01  3.208505000e+01 -9.572840000e+00  1.564400000e+00 -1.389950000e+00 -2.420540000e+00  3.199737841e+00  4.859160000e-01
-3.189601000e+01  3.217839000e+01 -1.185343000e+01  1.247990000e+00 -9.636100000e-01 -2.333130000e+00  2.815940139e+00  4.746680000e-01
-3.175222300e+01  3.212541400e+01 -1.413120000e+01  9.877770000e-01 -6.125860000e-01 -2.263200000e+00  2.544216824e+00  4.638000000e-01
-3.148164300e+01  3.192976600e+01 -1.639158000e+01  7.803570000e-01 -3.312340000e-01 -2.202580000e+00  2.360091453e+00  4.504340000e-01
-3.109060000e+01  3.159982600e+01 -1.862151000e+01  6.204000000e-01 -1.121740000e-01 -2.144510000e+00  2.235263364e+00  4.330620000e-01
-3.058837400e+01  3.114756500e+01 -2.080717000e+01  5.016260000e-01  5.256500000e-02 -2.084170000e+00  2.144331204e+00  4.117360000e-01
-2.998554500e+01  3.058588200e+01 -2.293177000e+01  4.174550000e-01  1.708820000e-01 -2.018770000e+00  2.068550615e+00  3.875140000e-01
-2.930772100e+01  2.993414600e+01 -2.495782000e+01  3.612790000e-01  2.501460000e-01 -1.947820000e+00  1.996771967e+00  3.620030000e-01
-2.860751700e+01  2.922851700e+01 -2.681409000e+01  3.264830000e-01  2.975170000e-01 -1.874090000e+00  1.925440428e+00  3.370770000e-01
-2.796707900e+01  2.854352300e+01 -2.837382000e+01  3.069210000e-01  3.205230000e-01 -1.804820000e+00  1.858577608e+00  3.154610000e-01
-1.495703000e+00  3.443409200e+01 -3.542309000e+01  9.070970000e-01  4.300920000e-01 -1.527090000e+00  1.827514149e+00  1.896380000e-01
-3.943167000e+00  3.426062200e+01 -3.521009000e+01  8.704330000e-01  4.436220000e-01 -1.573090000e+00  1.851773808e+00  2.004360000e-01
-6.389851000e+00  3.401615300e+01 -3.496254000e+01  8.291490000e-01  4.521530000e-01 -1.616540000e+00  1.872199768e+00  2.111780000e-01
-8.824995000e+00  3.368912400e+01 -3.465623000e+01  7.834050000e-01  4.561240000e-01 -1.656230000e+00  1.888086415e+00  2.219640000e-01
-1.124038300e+01  3.327865700e+01 -3.427946000e+01  7.336170000e-01  4.556570000e-01 -1.691460000e+00  1.899171961e+00  2.327980000e-01
-1.362675900e+01  3.278773800e+01 -3.382859000e+01  6.802410000e-01  4.507380000e-01 -1.721590000e+00  1.905194135e+00  2.436090000e-01
-1.597824900e+01  3.221938200e+01 -3.330295000e+01  6.237510000e-01  4.413820000e-01 -1.745950000e+00  1.905839653e+00  2.542640000e-01
-1.828630700e+01  3.157470300e+01 -3.270482000e+01  5.646930000e-01  4.277030000e-01 -1.763820000e+00  1.900754859e+00  2.645960000e-01
-2.053721400e+01  3.085796500e+01 -3.203945000e+01  5.037860000e-01  4.099650000e-01 -1.774450000e+00  1.889588431e+00  2.743970000e-01
-2.269760500e+01  3.007988000e+01 -3.132521000e+01  4.423950000e-01  3.888800000e-01 -1.777210000e+00  1.872275721e+00  2.833740000e-01
-2.468960900e+01  2.927907900e+01 -3.059935000e+01  3.833910000e-01  3.660790000e-01 -1.772350000e+00  1.849926219e+00  2.912290000e-01
-2.637485400e+01  2.854652600e+01 -2.992443000e+01  3.321460000e-01  3.445260000e-01 -1.762430000e+00  1.826247145e+00  2.976270000e-01
-2.805522700e+01  2.689123000e+01 -2.982443000e+01  2.587730000e-01  3.172300000e-01 -1.690430000e+00  1.739296387e+00  2.943560000e-01
-2.880764600e+01  2.527092700e+01 -3.038135000e+01  2.103540000e-01  2.979270000e-01 -1.595350000e+00  1.636505706e+00  2.833920000e-01
-2.959835000e+01  2.336471200e+01 -3.097779000e+01  1.656500000e-01  2.727120000e-01 -1.476790000e+00  1.510867453e+00  2.705850000e-01
-3.036196400e+01  2.128705800e+01 -3.155900000e+01  1.300360000e-01  2.430580000e-01 -1.341000000e+00  1.369038916e+00  2.565780000e-01
-3.107088300e+01  1.910059600e+01 -3.209168000e+01  1.051170000e-01  2.105960000e-01 -1.192680000e+00  1.215683282e+00  2.421800000e-01
-3.171366030e+01  1.684096700e+01 -3.255760000e+01  9.033970000e-02  1.769670000e-01 -1.035600000e+00  1.054488473e+00  2.282580000e-01
-3.228317120e+01  1.452655900e+01 -3.295305600e+01  8.382880000e-02  1.435590000e-01 -8.730560000e-01  8.887425011e-01  2.157490000e-01
-3.277716350e+01  1.216950800e+01 -3.327525900e+01  8.283650000e-02  1.115080000e-01 -7.082590000e-01  7.217525413e-01  2.056050000e-01
-3.319512680e+01  9.777985900e+00 -3.352762400e+01  8.387320000e-02  8.168590000e-02 -5.446240000e-01  5.570660655e-01  1.987150000e-01
-3.353625870e+01  7.359375400e+00 -3.371691400e+01  8.274130000e-02  5.457540000e-02 -3.859140000e-01  3.984397224e-01  1.955980000e-01
-3.379872570e+01  4.918114400e+00 -3.386054000e+01  7.427430000e-02  3.041440000e-02 -2.365400000e-01  2.497856661e-01  1.977490000e-01
-3.399065250e+01  2.455672300e+00 -3.398943200e+01  5.434750000e-02  5.172300000e-03 -1.004320000e-01  1.143109359e-01  1.921910000e-01
-5.013300000e-01  4.765562800e+01 -4.861270000e+00  2.393970000e+00 -3.493720000e-01 -1.971670000e+00  3.120999158e+00  3.779960000e-01
-6.362500000e-01  4.759605540e+01 -7.744480000e+00  2.236650000e+00 -9.594460000e-02 -1.974180000e+00  2.984827509e+00  3.749940000e-01
-7.653000000e-01  4.735414200e+01 -1.060838000e+01  2.081200000e+00  1.171420000e-01 -1.976780000e+00  2.872764323e+00  3.671580000e-01
-8.833500000e-01  4.690938900e+01 -1.344074000e+01  1.931250000e+00  2.873890000e-01 -1.977740000e+00  2.779167952e+00  3.556700000e-01
-9.882200000e-01  4.625638500e+01 -1.622751000e+01  1.788480000e+00  4.153850000e-01 -1.973510000e+00  2.695542084e+00  3.410730000e-01
-1.079470000e+00  4.539891800e+01 -1.895589000e+01  1.653330000e+00  5.039180000e-01 -1.960890000e+00  2.613909530e+00  3.239630000e-01
-1.156880000e+00  4.434632000e+01 -2.161132000e+01  1.526020000e+00  5.573200000e-01 -1.937320000e+00  2.528349542e+00  3.050460000e-01
-1.220980000e+00  4.310575100e+01 -2.418317000e+01  1.406420000e+00  5.807510000e-01 -1.901170000e+00  2.435104989e+00  2.850610000e-01
-1.273380000e+00  4.168767300e+01 -2.665966000e+01  1.294220000e+00  5.796730000e-01 -1.851660000e+00  2.332310218e+00  2.647000000e-01
-1.318560000e+00  4.010437700e+01 -2.903284000e+01  1.188940000e+00  5.593770000e-01 -1.788840000e+00  2.219556149e+00  2.445640000e-01
-1.365610000e+00  3.836478400e+01 -3.129232000e+01  1.089890000e+00  5.247840000e-01 -1.713320000e+00  2.097313491e+00  2.251260000e-01
-1.426920000e+00  3.647631300e+01 -3.342803000e+01  9.962800000e-01  4.803130000e-01 -1.626030000e+00  1.966531967e+00  2.067690000e-01
-3.305910000e+00  4.701798400e+01 -4.967650000e+00  2.475490000e+00 -6.730160000e-01 -2.105050000e+00  3.318469041e+00  3.892680000e-01
-3.448360000e+00  4.700220200e+01 -7.809510000e+00  2.289540000e+00 -3.517980000e-01 -2.091310000e+00  3.120790406e+00  3.895640000e-01
-3.578440000e+00  4.681264540e+01 -1.063621000e+01  2.107960000e+00 -7.935460000e-02 -2.080010000e+00  2.962470947e+00  3.839410000e-01
-3.686960000e+00  4.641827600e+01 -1.343596000e+01  1.936640000e+00  1.412760000e-01 -2.069960000e+00  2.838180368e+00  3.739840000e-01
-3.771710000e+00  4.581280900e+01 -1.619534000e+01  1.776990000e+00  3.108090000e-01 -2.057340000e+00  2.736227982e+00  3.601770000e-01
-3.832280000e+00  4.499863900e+01 -1.889809000e+01  1.629320000e+00  4.326390000e-01 -2.038090000e+00  2.644933083e+00  3.431130000e-01
-3.869130000e+00  4.398499100e+01 -2.153199000e+01  1.493270000e+00  5.119910000e-01 -2.008990000e+00  2.555001154e+00  3.235880000e-01
-3.883680000e+00  4.278107600e+01 -2.408288000e+01  1.368220000e+00  5.550760000e-01 -1.967880000e+00  2.460220931e+00  3.024990000e-01
-3.879400000e+00  4.139841500e+01 -2.654070000e+01  1.253300000e+00  5.684150000e-01 -1.913700000e+00  2.357138984e+00  2.807270000e-01
-3.865760000e+00  3.984931500e+01 -2.889541000e+01  1.147440000e+00  5.583150000e-01 -1.846410000e+00  2.244451844e+00  2.590730000e-01
-3.861690000e+00  3.814263900e+01 -3.113578000e+01  1.049310000e+00  5.306390000e-01 -1.766780000e+00  2.122296113e+00  2.381860000e-01
-3.891507000e+00  3.628770200e+01 -3.324985000e+01  9.574930000e-01  4.907020000e-01 -1.675850000e+00  1.991495549e+00  2.185890000e-01
-6.075300000e+00  4.619998000e+01 -5.073540000e+00  2.572400000e+00 -1.033020000e+00 -2.240540000e+00  3.564322035e+00  3.996270000e-01
-6.234750000e+00  4.624909900e+01 -7.867450000e+00  2.349850000e+00 -6.379010000e-01 -2.206850000e+00  3.286167925e+00  4.005950000e-01
-6.372070000e+00  4.612297800e+01 -1.065170000e+01  2.137230000e+00 -3.010220000e-01 -2.179200000e+00  3.067128781e+00  3.967240000e-01
-6.476010000e+00  4.578822480e+01 -1.341498000e+01  1.940790000e+00 -2.577520000e-02 -2.156980000e+00  2.901705172e+00  3.886000000e-01
-6.544150000e+00  4.523783700e+01 -1.614238000e+01  1.761850000e+00  1.888370000e-01 -2.135380000e+00  2.774819378e+00  3.762040000e-01
-6.576540000e+00  4.447486100e+01 -1.881842000e+01  1.600060000e+00  3.468610000e-01 -2.109420000e+00  2.670235438e+00  3.598590000e-01
-6.574460000e+00  4.350854800e+01 -2.142699000e+01  1.454440000e+00  4.545480000e-01 -2.074990000e+00  2.574411214e+00  3.403350000e-01
-6.540350000e+00  4.234924000e+01 -2.395531000e+01  1.323650000e+00  5.192400000e-01 -2.029310000e+00  2.477853623e+00  3.186420000e-01
-6.479990000e+00  4.101060900e+01 -2.639294000e+01  1.206110000e+00  5.486090000e-01 -1.970940000e+00  2.374926873e+00  2.958450000e-01
-6.407990000e+00  3.950401400e+01 -2.872774000e+01  1.100010000e+00  5.500140000e-01 -1.899740000e+00  2.263084061e+00  2.729620000e-01
-6.353460000e+00  3.783827800e+01 -3.094853000e+01  1.003240000e+00  5.302780000e-01 -1.816530000e+00  2.141837178e+00  2.508500000e-01
-6.353083000e+00  3.602061400e+01 -3.303948000e+01  9.136170000e-01  4.956140000e-01 -1.722480000e+00  2.011781949e+00  2.301950000e-01
-8.799170000e+00  4.519654000e+01 -5.177330000e+00  2.684830000e+00 -1.415460000e+00 -2.378630000e+00  3.856127568e+00  4.115140000e-01
-8.984400000e+00  4.532117400e+01 -7.914560000e+00  2.418600000e+00 -9.438260000e-01 -2.320960000e+00  3.482425706e+00  4.107650000e-01
-9.135290000e+00  4.526571600e+01 -1.064889000e+01  2.169710000e+00 -5.402840000e-01 -2.274490000e+00  3.189491032e+00  4.075040000e-01
-9.239480000e+00  4.499754300e+01 -1.336944000e+01  1.944520000e+00 -2.084570000e-01 -2.238440000e+00  2.972410804e+00  4.009490000e-01
-9.295330000e+00  4.450996740e+01 -1.605900000e+01  1.743670000e+00  5.296740000e-02 -2.207000000e+00  2.813190291e+00  3.901510000e-01
-9.302870000e+00  4.380578400e+01 -1.870194000e+01  1.566130000e+00  2.487840000e-01 -2.173940000e+00  2.690849639e+00  3.749070000e-01
-9.264000000e+00  4.289527100e+01 -2.128217000e+01  1.410000000e+00  3.862710000e-01 -2.134170000e+00  2.586887488e+00  3.557890000e-01
-9.182910000e+00  4.178995500e+01 -2.378416000e+01  1.273090000e+00  4.739550000e-01 -2.084160000e+00  2.487793077e+00  3.338520000e-01
-9.067040000e+00  4.050464600e+01 -2.619805000e+01  1.152960000e+00  5.206460000e-01 -2.022050000e+00  2.385178237e+00  3.103210000e-01
-8.937400000e+00  3.905073300e+01 -2.851146000e+01  1.046900000e+00  5.347330000e-01 -1.947460000e+00  2.274761404e+00  2.864350000e-01
-8.833026000e+00  3.743495400e+01 -3.070826000e+01  9.518740000e-01  5.239540000e-01 -1.861260000e+00  2.155198528e+00  2.632730000e-01
-8.802558000e+00  3.566239100e+01 -3.277264000e+01  8.648420000e-01  4.953910000e-01 -1.764640000e+00  2.026651982e+00  2.417070000e-01
-1.147212000e+01  4.402462000e+01 -5.275710000e+00  2.806880000e+00 -1.801380000e+00 -2.516610000e+00  4.178142067e+00  4.256830000e-01
-1.168922000e+01  4.422602000e+01 -7.947730000e+00  2.491780000e+00 -1.254980000e+00 -2.432030000e+00  3.701177149e+00  4.213880000e-01
-1.186004000e+01  4.424379300e+01 -1.062419000e+01  2.202960000e+00 -7.862070000e-01 -2.364490000e+00  3.325953573e+00  4.174460000e-01
-1.196968000e+01  4.404712200e+01 -1.329422000e+01  1.946320000e+00 -3.988780000e-01 -2.313220000e+00  3.049303522e+00  4.118030000e-01
-1.201625000e+01  4.362671050e+01 -1.594009000e+01  1.721750000e+00 -9.128950000e-02 -2.271090000e+00  2.851421860e+00  4.024700000e-01
-1.200074000e+01  4.298807400e+01 -1.854457000e+01  1.527260000e+00  1.420740000e-01 -2.230570000e+00  2.707055717e+00  3.884840000e-01
-1.192696000e+01  4.214150800e+01 -2.108944000e+01  1.360040000e+00  3.095080000e-01 -2.185440000e+00  2.592614896e+00  3.700500000e-01
-1.180117000e+01  4.109963400e+01 -2.356237000e+01  1.216830000e+00  4.206340000e-01 -2.131370000e+00  2.490049455e+00  3.481620000e-01
-1.163175000e+01  3.987732700e+01 -2.594798000e+01  1.094250000e+00  4.853270000e-01 -2.065980000e+00  2.387718308e+00  3.241590000e-01
-1.144642900e+01  3.848589500e+01 -2.823564000e+01  9.885710000e-01  5.128950000e-01 -1.988640000e+00  2.279259299e+00  2.994850000e-01
-1.129231500e+01  3.693088800e+01 -3.040611000e+01  8.956850000e-01  5.118880000e-01 -1.900110000e+00  2.162105214e+00  2.754500000e-01
-1.123138100e+01  3.521216700e+01 -3.243858000e+01  8.116190000e-01  4.901670000e-01 -1.801580000e+00  2.035848616e+00  2.531250000e-01
-1.409606000e+01  4.270588000e+01 -5.363460000e+00  2.926940000e+00 -2.168120000e+00 -2.649560000e+00  4.504208065e+00  4.417090000e-01
-1.434878000e+01  4.298139000e+01 -7.962790000e+00  2.561220000e+00 -1.553610000e+00 -2.536290000e+00  3.925088392e+00  4.328850000e-01
-1.454053000e+01  4.307164000e+01 -1.057438000e+01  2.231470000e+00 -1.025360000e+00 -2.446580000e+00  3.466493212e+00  4.271900000e-01
-1.465729000e+01  4.294581800e+01 -1.318730000e+01  1.942710000e+00 -5.871820000e-01 -2.379300000e+00  3.127294891e+00  4.216630000e-01
-1.469701000e+01  4.259604200e+01 -1.578304000e+01  1.693990000e+00 -2.369580000e-01 -2.326040000e+00  2.887250127e+00  4.134240000e-01
-1.466156000e+01  4.202749790e+01 -1.834191000e+01  1.482440000e+00  3.149790000e-02 -2.277910000e+00  2.717994562e+00  4.006660000e-01
-1.455583000e+01  4.125036700e+01 -2.084854000e+01  1.304170000e+00  2.273670000e-01 -2.227540000e+00  2.591233219e+00  3.830750000e-01
-1.438706000e+01  4.028020800e+01 -2.328478000e+01  1.154940000e+00  3.612080000e-01 -2.169780000e+00  2.484411977e+00  3.614740000e-01
-1.416671000e+01  3.913075800e+01 -2.563971000e+01  1.030290000e+00  4.437580000e-01 -2.101710000e+00  2.382352529e+00  3.372470000e-01
-1.392556300e+01  3.781307000e+01 -2.789733000e+01  9.254370000e-01  4.850700000e-01 -2.022330000e+00  2.276300765e+00  3.120080000e-01
-1.372385800e+01  3.632732000e+01 -3.003725000e+01  8.351420000e-01  4.943200000e-01 -1.932250000e+00  2.162268366e+00  2.872870000e-01
-1.363256900e+01  3.467000400e+01 -3.203456000e+01  7.544310000e-01  4.800040000e-01 -1.832560000e+00  2.039079726e+00  2.643650000e-01
-1.667747000e+01  4.127005000e+01 -5.432840000e+00  3.028530000e+00 -2.490950000e+00 -2.769440000e+00  4.800689927e+00  4.586120000e-01
-1.696270000e+01  4.161076000e+01 -7.954560000e+00  2.615300000e+00 -1.820240000e+00 -2.628160000e+00  4.130410722e+00  4.450390000e-01
-1.717472000e+01  4.176721000e+01 -1.049581000e+01  2.247280000e+00 -1.242790000e+00 -2.516810000e+00  3.595709521e+00  4.369790000e-01
-1.729850000e+01  4.170876000e+01 -1.304591000e+01  1.928500000e+00 -7.622400000e-01 -2.433910000e+00  3.197505271e+00  4.308530000e-01
-1.733174000e+01  4.142801700e+01 -1.558580000e+01  1.657260000e+00 -3.759830000e-01 -2.369800000e+00  2.916132021e+00  4.232140000e-01
-1.727709000e+01  4.093170520e+01 -1.809534000e+01  1.429910000e+00 -7.729480000e-02 -2.314340000e+00  2.721541242e+00  4.114950000e-01
-1.714134000e+01  4.022967900e+01 -2.055611000e+01  1.241660000e+00  1.436790000e-01 -2.259110000e+00  2.581848408e+00  3.947890000e-01
-1.693073000e+01  3.933814800e+01 -2.295422000e+01  1.087270000e+00  2.981480000e-01 -2.198220000e+00  2.470469480e+00  3.736510000e-01
-1.666070900e+01  3.826945100e+01 -2.527316000e+01  9.612910000e-01  3.974510000e-01 -2.128160000e+00  2.368778730e+00  3.494280000e-01
-1.636810600e+01  3.703310300e+01 -2.749858000e+01  8.578940000e-01  4.521030000e-01 -2.047580000e+00  2.265604355e+00  3.238450000e-01
-1.611928100e+01  3.562666000e+01 -2.960384000e+01  7.707190000e-01  4.716600000e-01 -1.956840000e+00  2.155387139e+00  2.986320000e-01
-1.599821500e+01  3.404004800e+01 -3.155983000e+01  6.937850000e-01  4.650480000e-01 -1.856830000e+00  2.036031659e+00  2.752840000e-01
-1.922327000e+01  3.974454000e+01 -5.473830000e+00  3.092730000e+00 -2.745460000e+00 -2.865930000e+00  5.031509140e+00  4.753270000e-01
-1.953470000e+01  4.013752000e+01 -7.916310000e+00  2.640300000e+00 -2.035480000e+00 -2.700410000e+00  4.290288695e+00  4.573350000e-01
-1.976115000e+01  4.034957000e+01 -1.038498000e+01  2.240850000e+00 -1.423430000e+00 -2.570280000e+00  3.695118532e+00  4.467580000e-01
-1.988768000e+01  4.035041900e+01 -1.286870000e+01  1.897320000e+00 -9.125810000e-01 -2.473700000e+00  3.248356347e+00  4.395500000e-01
-1.991245000e+01  4.013614100e+01 -1.534899000e+01  1.607550000e+00 -4.998590000e-01 -2.399990000e+00  2.931557269e+00  4.320110000e-01
-1.983860000e+01  3.971085600e+01 -1.780407000e+01  1.367400000e+00 -1.781440000e-01 -2.338070000e+00  2.714422474e+00  4.210290000e-01
-1.967263000e+01  3.908576550e+01 -2.021575000e+01  1.171370000e+00  6.276550000e-02 -2.278750000e+00  2.562957032e+00  4.051330000e-01
-1.942255000e+01  3.827738900e+01 -2.257046000e+01  1.013450000e+00  2.343890000e-01 -2.215460000e+00  2.447505284e+00  3.845580000e-01
-1.910665700e+01  3.729629700e+01 -2.485125000e+01  8.873430000e-01  3.482970000e-01 -2.144250000e+00  2.346592522e+00  3.605380000e-01
-1.876372000e+01  3.615113900e+01 -2.704041000e+01  7.862800000e-01  4.151390000e-01 -2.063410000e+00  2.246828310e+00  3.348280000e-01
-1.846911400e+01  3.483153200e+01 -2.910697000e+01  7.028860000e-01  4.445320000e-01 -1.972970000e+00  2.141090388e+00  3.093100000e-01
-1.831777600e+01  3.332358800e+01 -3.101656000e+01  6.302240000e-01  4.455880000e-01 -1.873560000e+00  2.026316370e+00  2.857030000e-01
-2.174406000e+01  3.815696000e+01 -5.475390000e+00  3.100940000e+00 -2.910040000e+00 -2.927090000e+00  5.162559206e+00  4.908450000e-01
-2.206750000e+01  3.858403000e+01 -7.842360000e+00  2.622500000e+00 -2.181970000e+00 -2.744860000e+00  4.378670546e+00  4.692080000e-01
-2.229880000e+01  3.883663000e+01 -1.023984000e+01  2.202200000e+00 -1.553370000e+00 -2.601440000e+00  3.745681950e+00  4.563110000e-01
-2.242178000e+01  3.888775000e+01 -1.265689000e+01  1.842220000e+00 -1.027250000e+00 -2.494890000e+00  3.267031252e+00  4.478080000e-01
-2.243372000e+01  3.873192500e+01 -1.507497000e+01  1.540280000e+00 -6.000750000e-01 -2.413970000e+00  2.925714211e+00  4.399510000e-01
-2.233793000e+01  3.837442200e+01 -1.747420000e+01  1.292070000e+00 -2.645780000e-01 -2.347200000e+00  2.692358491e+00  4.293340000e-01
-2.214225000e+01  3.782644560e+01 -1.983493000e+01  1.091750000e+00 -1.055440000e-02 -2.284930000e+00  2.532377255e+00  4.140530000e-01
-2.185421100e+01  3.710239900e+01 -2.214325000e+01  9.327890000e-01  1.733990000e-01 -2.220250000e+00  2.414471494e+00  3.940350000e-01
-2.149271900e+01  3.621469800e+01 -2.438285000e+01  8.082810000e-01  2.986980000e-01 -2.148850000e+00  2.315187896e+00  3.703630000e-01
-2.110123500e+01  3.516572400e+01 -2.653372000e+01  7.107650000e-01  3.757240000e-01 -2.068720000e+00  2.219449898e+00  3.447400000e-01
-2.076294700e+01  3.394187300e+01 -2.855857000e+01  6.320530000e-01  4.138730000e-01 -1.979570000e+00  2.118839126e+00  3.191040000e-01
-2.057859000e+01  3.252214800e+01 -3.041584000e+01  5.644100000e-01  4.221480000e-01 -1.881840000e+00  2.009499780e+00  2.954010000e-01
-2.424470000e+01  3.652858000e+01 -5.429790000e+00  3.038300000e+00 -2.968420000e+00 -2.941990000e+00  5.167019387e+00  5.042000000e-01
-2.456517000e+01  3.696917000e+01 -7.730990000e+00  2.549830000e+00 -2.245830000e+00 -2.753590000e+00  4.373516126e+00  4.800960000e-01
-2.478818000e+01  3.724728000e+01 -1.006452000e+01  2.121820000e+00 -1.620720000e+00 -2.604720000e+00  3.730069665e+00  4.653410000e-01
-2.489808000e+01  3.733395000e+01 -1.242039000e+01  1.755920000e+00 -1.096050000e+00 -2.493490000e+00  3.240690209e+00  4.555690000e-01
-2.488993000e+01  3.722698400e+01 -1.477991000e+01  1.450070000e+00 -6.680160000e-01 -2.408910000e+00  2.889947364e+00  4.470940000e-01
-2.476784000e+01  3.693054800e+01 -1.712360000e+01  1.200160000e+00 -3.294520000e-01 -2.339600000e+00  2.650028454e+00  4.364320000e-01
-2.453772000e+01  3.645647370e+01 -1.943397000e+01  1.000280000e+00 -7.052630000e-02 -2.275970000e+00  2.487081317e+00  4.214350000e-01
-2.421028100e+01  3.581666600e+01 -2.169609000e+01  8.437190000e-01  1.196660000e-01 -2.211090000e+00  2.369620368e+00  4.018090000e-01
-2.380474400e+01  3.502094900e+01 -2.389551000e+01  7.232560000e-01  2.519490000e-01 -2.140510000e+00  2.273402868e+00  3.785030000e-01
-2.336292300e+01  3.407117000e+01 -2.600703000e+01  6.310770000e-01  3.361700000e-01 -2.062030000e+00  2.182483945e+00  3.531390000e-01
-2.297549000e+01  3.295116100e+01 -2.798722000e+01  5.585100000e-01  3.811610000e-01 -1.975220000e+00  2.087752662e+00  3.276220000e-01
-2.275078500e+01  3.163671500e+01 -2.978147000e+01  4.972150000e-01  3.957150000e-01 -1.880470000e+00  1.984938422e+00  3.040140000e-01
-2.672551000e+01  3.487533000e+01 -5.337050000e+00  2.895490000e+00 -2.911670000e+00 -2.903250000e+00  5.028970580e+00  5.144200000e-01
-2.702680000e+01  3.530927000e+01 -7.591340000e+00  2.413200000e+00 -2.217730000e+00 -2.720540000e+00  4.259483359e+00  4.893640000e-01
-2.722784000e+01  3.559404000e+01 -9.877000000e+00  1.991160000e+00 -1.615960000e+00 -2.575100000e+00  3.634169077e+00  4.734350000e-01
-2.731219000e+01  3.570245000e+01 -1.218449000e+01  1.630810000e+00 -1.109550000e+00 -2.465590000e+00  3.157495290e+00  4.626110000e-01
-2.727350000e+01  3.563031900e+01 -1.449573000e+01  1.330500000e+00 -6.946810000e-01 -2.381730000e+00  2.815217529e+00  4.533320000e-01
-2.711656000e+01  3.538445100e+01 -1.679382000e+01  1.086440000e+00 -3.645490000e-01 -2.312820000e+00  2.581159468e+00  4.421900000e-01
-2.684705900e+01  3.497403700e+01 -1.906178000e+01  8.929410000e-01 -1.099630000e-01 -2.249780000e+00  2.423003413e+00  4.270100000e-01
-2.647368000e+01  3.441015520e+01 -2.128499000e+01  7.433200000e-01  7.915520000e-02 -2.185990000e+00  2.310268913e+00  4.074210000e-01
-2.601662200e+01  3.370278400e+01 -2.344716000e+01  6.303780000e-01  2.127840000e-01 -2.117160000e+00  2.219238590e+00  3.842990000e-01
-2.551771800e+01  3.285292000e+01 -2.552115000e+01  5.462820000e-01  2.999200000e-01 -2.041150000e+00  2.134167133e+00  3.591890000e-01
-2.506455000e+01  3.184801700e+01 -2.745164000e+01  4.824500000e-01  3.490170000e-01 -1.957640000e+00  2.046197752e+00  3.339850000e-01
-2.477279500e+01  3.067413600e+01 -2.917102000e+01  4.302050000e-01  3.681360000e-01 -1.868020000e+00  1.951947534e+00  3.109190000e-01
-2.918174000e+01  3.320047000e+01 -5.208680000e+00  2.670260000e+00 -2.740530000e+00 -2.809580000e+00  4.747055185e+00  5.207540000e-01
-2.944998000e+01  3.361285000e+01 -7.444910000e+00  2.208020000e+00 -2.095150000e+00 -2.642910000e+00  4.031126283e+00  4.966290000e-01
-2.961654000e+01  3.388680000e+01 -9.708800000e+00  1.804460000e+00 -1.534200000e+00 -2.509400000e+00  3.450642533e+00  4.806450000e-01
-2.966019000e+01  3.399973000e+01 -1.199158000e+01  1.460810000e+00 -1.061270000e+00 -2.408080000e+00  3.009835403e+00  4.693730000e-01
-2.957924000e+01  3.394819000e+01 -1.427663000e+01  1.175760000e+00 -6.728100000e-01 -2.329630000e+00  2.694858217e+00  4.593320000e-01
-2.937415700e+01  3.373649500e+01 -1.654735000e+01  9.458430000e-01 -3.625050000e-01 -2.264350000e+00  2.480586579e+00  4.473020000e-01
-2.905139600e+01  3.337404700e+01 -1.878798000e+01  7.656040000e-01 -1.219530000e-01 -2.203980000e+00  2.336353967e+00  4.313210000e-01
-2.862043800e+01  3.287297400e+01 -2.098551000e+01  6.285620000e-01  5.797400000e-02 -2.142510000e+00  2.233562238e+00  4.111390000e-01
-2.809827500e+01  3.224226400e+01 -2.312112000e+01  5.277250000e-01  1.862640000e-01 -2.076120000e+00  2.150223758e+00  3.876790000e-01
-2.752228400e+01  3.149021400e+01 -2.516217000e+01  4.557160000e-01  2.712140000e-01 -2.003170000e+00  2.072178601e+00  3.624910000e-01
-2.696951000e+01  3.062252100e+01 -2.704348000e+01  4.044900000e-01  3.205210000e-01 -1.924480000e+00  1.992478141e+00  3.374680000e-01
-2.655298700e+01  2.965457700e+01 -2.866930000e+01  3.660130000e-01  3.425770000e-01 -1.843300000e+00  1.910256372e+00  3.152460000e-01
-1.605467000e+00  3.228260700e+01 -3.729328000e+01  8.223330000e-01  3.766070000e-01 -1.419280000e+00  1.682979535e+00  1.737590000e-01
-1.733981000e+00  3.001549000e+01 -3.902177000e+01  7.414190000e-01  3.224900000e-01 -1.302770000e+00  1.533268276e+00  1.592260000e-01
-1.871670000e+00  2.764466200e+01 -4.060559000e+01  6.640300000e-01  2.696620000e-01 -1.178590000e+00  1.379394006e+00  1.460870000e-01
-2.011863000e+00  2.518058100e+01 -4.203996000e+01  5.898370000e-01  2.195810000e-01 -1.047960000e+00  1.222433501e+00  1.343870000e-01
-2.151301000e+00  2.263443400e+01 -4.332237400e+01  5.184990000e-01  1.734340000e-01 -9.123740000e-01  1.063647912e+00  1.242080000e-01
-2.289309000e+00  2.001718300e+01 -4.444865100e+01  4.496910000e-01  1.321830000e-01 -7.736510000e-01  9.045607833e-01  1.156970000e-01
-2.428067000e+00  1.734258130e+01 -4.541705600e+01  3.831330000e-01  9.658130000e-02 -6.340560000e-01  7.470915970e-01  1.090710000e-01
-2.572819000e+00  1.462310430e+01 -4.622650600e+01  3.185810000e-01  6.710430000e-02 -4.965060000e-01  5.937297775e-01  1.046280000e-01
-2.730612000e+00  1.187101380e+01 -4.687625000e+01  2.558880000e-01  4.401380000e-02 -3.642500000e-01  4.473186176e-01  1.027090000e-01
-2.904191000e+00  9.084906500e+00 -4.737131900e+01  1.944090000e-01  2.680650000e-02 -2.413190000e-01  3.110438996e-01  1.037610000e-01
-3.071258000e+00  6.226907200e+00 -4.772849300e+01  1.332420000e-01  1.500720000e-02 -1.304930000e-01  1.871017629e-01  1.097620000e-01
-3.140962400e+00  3.205405026e+00 -4.798291240e+01  6.913760000e-02  2.050260000e-04 -3.791240000e-02  7.885049044e-02  1.063200000e-01
-4.077212000e+00  3.213697900e+01 -3.705249000e+01  7.880880000e-01  3.919790000e-01 -1.462490000e+00  1.706929182e+00  1.836490000e-01
-4.250799000e+00  2.989684800e+01 -3.875333000e+01  7.099010000e-01  3.388480000e-01 -1.343330000e+00  1.556699356e+00  1.682980000e-01
-4.445954000e+00  2.755233600e+01 -4.030852000e+01  6.356460000e-01  2.863360000e-01 -1.216520000e+00  1.402125191e+00  1.544330000e-01
-4.649254000e+00  2.511599900e+01 -4.171821000e+01  5.650460000e-01  2.359990000e-01 -1.083210000e+00  1.244313632e+00  1.420790000e-01
-4.853764000e+00  2.259811300e+01 -4.297790900e+01  4.977360000e-01  1.891130000e-01 -9.449090000e-01  1.084600328e+00  1.313140000e-01
-5.057689000e+00  2.001370500e+01 -4.408549900e+01  4.333110000e-01  1.467050000e-01 -8.034990000e-01  9.246033867e-01  1.222800000e-01
-5.264049000e+00  1.737256400e+01 -4.503831100e+01  3.713510000e-01  1.095640000e-01 -6.613110000e-01  7.663146051e-01  1.151870000e-01
-5.480456000e+00  1.468821990e+01 -4.583417000e+01  3.114440000e-01  7.821990000e-02 -5.211700000e-01  6.121551166e-01  1.103180000e-01
-5.715030000e+00  1.196687790e+01 -4.647612600e+01  2.530700000e-01  5.287790000e-02 -3.861260000e-01  4.646867602e-01  1.079560000e-01
-5.962372000e+00  9.193822700e+00 -4.696931400e+01  1.954280000e-01  3.292270000e-02 -2.593140000e-01  3.263736478e-01  1.084600000e-01
-6.168546000e+00  6.308584800e+00 -4.733778700e+01  1.360540000e-01  1.858480000e-02 -1.427870000e-01  1.981015221e-01  1.142300000e-01
-6.182490600e+00  3.222728159e+00 -4.763316230e+01  7.180940000e-02  6.281590000e-04 -4.316230000e-02  8.378525320e-02  1.111150000e-01
-6.548524000e+00  3.192172100e+01 -3.677346000e+01  7.494760000e-01  4.027210000e-01 -1.503460000e+00  1.727509899e+00  1.936070000e-01
-6.766505000e+00  2.970685800e+01 -3.843882000e+01  6.741950000e-01  3.508580000e-01 -1.381820000e+00  1.577043673e+00  1.775130000e-01
-7.017405000e+00  2.738489600e+01 -3.996038000e+01  6.031950000e-01  2.988960000e-01 -1.252380000e+00  1.421843413e+00  1.629730000e-01
-7.281623000e+00  2.497051000e+01 -4.133725000e+01  5.362770000e-01  2.485100000e-01 -1.116250000e+00  1.263077315e+00  1.500000000e-01
-7.547840000e+00  2.247407300e+01 -4.256693100e+01  4.730600000e-01  2.010730000e-01 -9.749310000e-01  1.102137274e+00  1.386730000e-01
-7.812358000e+00  1.990969800e+01 -4.364933900e+01  4.130420000e-01  1.576980000e-01 -8.303390000e-01  9.407099489e-01  1.291410000e-01
-8.077151000e+00  1.728724700e+01 -4.457979900e+01  3.556490000e-01  1.192470000e-01 -6.847990000e-01  7.808045393e-01  1.216190000e-01
-8.348086000e+00  1.461629650e+01 -4.535805900e+01  3.002140000e-01  8.629650000e-02 -5.410590000e-01  6.247562510e-01  1.163800000e-01
-8.629395000e+00  1.189906550e+01 -4.598600300e+01  2.460050000e-01  5.906550000e-02 -4.020030000e-01  4.749880055e-01  1.136960000e-01
-8.905750000e+00  9.115048600e+00 -4.647150600e+01  1.917500000e-01  3.724860000e-02 -2.705060000e-01  3.336600317e-01  1.139320000e-01
-9.105743000e+00  6.212823100e+00 -4.684231300e+01  1.347570000e-01  2.072310000e-02 -1.493130000e-01  2.021961125e-01  1.193840000e-01
-9.077635900e+00  3.143172610e+00 -4.715727930e+01  7.236410000e-02  1.672610000e-03 -4.627930000e-02  8.591352747e-02  1.161380000e-01
-9.007250000e+00  3.162642000e+01 -3.642805000e+01  7.066500000e-01  4.094200000e-01 -1.541050000e+00  1.744079718e+00  2.037210000e-01
-9.267129000e+00  2.943826200e+01 -3.805123000e+01  6.344710000e-01  3.592620000e-01 -1.417230000e+00  1.593789041e+00  1.869610000e-01
-9.570100000e+00  2.713923800e+01 -3.953037000e+01  5.669000000e-01  3.082380000e-01 -1.285370000e+00  1.438249739e+00  1.717960000e-01
-9.891168000e+00  2.474514900e+01 -4.086552000e+01  5.038320000e-01  2.581490000e-01 -1.146520000e+00  1.278669504e+00  1.582330000e-01
-1.021311800e+01  2.226847400e+01 -4.205819000e+01  4.448820000e-01  2.104740000e-01 -1.002190000e+00  1.116514261e+00  1.463590000e-01
-1.052954100e+01  1.972041600e+01 -4.310630100e+01  3.894590000e-01  1.664160000e-01 -8.543010000e-01  9.535212616e-01  1.363360000e-01
-1.084019000e+01  1.711191700e+01 -4.400818900e+01  3.368100000e-01  1.269170000e-01 -7.051890000e-01  7.917325475e-01  1.283940000e-01
-1.114792600e+01  1.444961460e+01 -4.476257100e+01  2.860740000e-01  9.261460000e-02 -5.575710000e-01  6.334833997e-01  1.228130000e-01
-1.145279200e+01  1.173385060e+01 -4.537133200e+01  2.362080000e-01  6.385060000e-02 -4.143320000e-01  4.811882424e-01  1.198730000e-01
-1.173224200e+01  8.948582300e+00 -4.584458600e+01  1.857580000e-01  4.038230000e-02 -2.785860000e-01  3.372638791e-01  1.199070000e-01
-1.191700000e+01  6.059303800e+00 -4.621105400e+01  1.320000000e-01  2.230380000e-02 -1.540540000e-01  2.040933473e-01  1.249560000e-01
-1.187985540e+01  3.046871140e+00 -4.653219570e+01  7.214460000e-02  2.371140000e-03 -4.919570000e-02  8.735377790e-02  1.214650000e-01
-1.144297800e+01  3.125322400e+01 -3.600569000e+01  6.600220000e-01  4.122240000e-01 -1.574690000e+00  1.756475523e+00  2.140070000e-01
-1.174185100e+01  2.909426100e+01 -3.757811000e+01  5.911490000e-01  3.642610000e-01 -1.449110000e+00  1.606879899e+00  1.966690000e-01
-1.209280600e+01  2.682063000e+01 -3.900421000e+01  5.271940000e-01  3.146300000e-01 -1.315210000e+00  1.451448550e+00  1.809410000e-01
-1.246482200e+01  2.444826300e+01 -4.028897000e+01  4.681780000e-01  2.652630000e-01 -1.173970000e+00  1.291418081e+00  1.668260000e-01
-1.283527300e+01  2.199274400e+01 -4.143492000e+01  4.137270000e-01  2.177440000e-01 -1.026920000e+00  1.128338232e+00  1.544230000e-01
-1.319583900e+01  1.946536200e+01 -4.244199400e+01  3.631610000e-01  1.733620000e-01 -8.759940000e-01  9.640050742e-01  1.439130000e-01
-1.354342100e+01  1.687413800e+01 -4.330854700e+01  3.155790000e-01  1.331380000e-01 -7.235470000e-01  8.005223879e-01  1.355470000e-01
-1.387611200e+01  1.422580330e+01 -4.403332900e+01  2.698880000e-01  9.780330000e-02 -5.723290000e-01  6.402854850e-01  1.296200000e-01
-1.419117600e+01  1.152276990e+01 -4.461936700e+01  2.248240000e-01  6.776990000e-02 -4.253670000e-01  4.858761931e-01  1.264240000e-01
-1.446732900e+01  8.752721900e+00 -4.507614400e+01  1.786710000e-01  4.302190000e-02 -2.861440000e-01  3.400773425e-01  1.262590000e-01
-1.464138700e+01  5.898842400e+00 -4.543312600e+01  1.286130000e-01  2.364240000e-02 -1.591260000e-01  2.059644404e-01  1.309570000e-01
-1.462028040e+01  2.956688070e+00 -4.575059600e+01  7.171960000e-02  2.988070000e-03 -5.259600000e-02  8.898858805e-02  1.272190000e-01
-1.384895700e+01  3.080408600e+01 -3.550084000e+01  6.100430000e-01  4.110860000e-01 -1.603840000e+00  1.764496219e+00  2.244090000e-01
-1.418133200e+01  2.867881300e+01 -3.701307000e+01  5.446680000e-01  3.658130000e-01 -1.477070000e+00  1.616235802e+00  2.066060000e-01
-1.457549200e+01  2.643405700e+01 -3.837765000e+01  4.845080000e-01  3.180570000e-01 -1.341650000e+00  1.461483144e+00  1.904010000e-01
-1.499227100e+01  2.408988400e+01 -3.960356000e+01  4.297290000e-01  2.698840000e-01 -1.198560000e+00  1.301556937e+00  1.757940000e-01
-1.540701000e+01  2.165996700e+01 -4.069530000e+01  3.799900000e-01  2.229670000e-01 -1.049300000e+00  1.138040937e+00  1.628990000e-01
-1.580445600e+01  1.915767700e+01 -4.165284600e+01  3.345440000e-01  1.786770000e-01 -8.958460000e-01  9.728233211e-01  1.519190000e-01
-1.618066600e+01  1.659111700e+01 -4.247659100e+01  2.923340000e-01  1.381170000e-01 -7.405910000e-01  8.080906524e-01  1.431270000e-01
-1.653293600e+01  1.396709400e+01 -4.316535100e+01  2.520640000e-01  1.020940000e-01 -5.863510000e-01  6.463489306e-01  1.368450000e-01
-1.685479800e+01  1.128814780e+01 -4.372331600e+01  2.122020000e-01  7.114780000e-02 -4.363160000e-01  4.903706252e-01  1.333900000e-01
-1.712824700e+01  8.549881900e+00 -4.415928700e+01  1.707530000e-01  4.538190000e-02 -2.942870000e-01  3.432505531e-01  1.330280000e-01
-1.730225500e+01  5.744823900e+00 -4.450314900e+01  1.247450000e-01  2.492390000e-02 -1.651490000e-01  2.084627257e-01  1.374140000e-01
-1.730590260e+01  2.874916250e+00 -4.480957310e+01  7.109740000e-02  3.516250000e-03 -5.657310000e-02  9.092700338e-02  1.334190000e-01
-1.621581500e+01  3.028294300e+01 -3.491194000e+01  5.571850000e-01  4.059430000e-01 -1.627940000e+00  1.767889557e+00  2.348200000e-01
-1.657852000e+01  2.819581500e+01 -3.635565000e+01  4.954800000e-01  3.638150000e-01 -1.500650000e+00  1.621669574e+00  2.166950000e-01
-1.701074600e+01  2.598641000e+01 -3.765039000e+01  4.392540000e-01  3.184100000e-01 -1.364390000e+00  1.468294615e+00  2.001310000e-01
-1.746815100e+01  2.367390900e+01 -3.880910000e+01  3.888490000e-01  2.719090000e-01 -1.220100000e+00  1.309114991e+00  1.851290000e-01
-1.792002400e+01  2.127706800e+01 -3.983730000e+01  3.439760000e-01  2.260680000e-01 -1.069300000e+00  1.145787380e+00  1.718090000e-01
-1.835016400e+01  1.880632400e+01 -4.073800300e+01  3.038360000e-01  1.823240000e-01 -9.140030000e-01  9.802855910e-01  1.603960000e-01
-1.875176400e+01  1.627284900e+01 -4.151162100e+01  2.672360000e-01  1.418490000e-01 -7.566210000e-01  8.148690423e-01  1.511920000e-01
-1.911933300e+01  1.368253800e+01 -4.216004600e+01  2.326670000e-01  1.055380000e-01 -6.000460000e-01  6.521712999e-01  1.445550000e-01
-1.944867700e+01  1.104002040e+01 -4.268460300e+01  1.983230000e-01  7.402040000e-02 -4.476030000e-01  4.951358173e-01  1.408350000e-01
-1.972208000e+01  8.345206100e+00 -4.309528700e+01  1.619200000e-01  4.750610000e-02 -3.032870000e-01  3.470704832e-01  1.402620000e-01
-1.990173100e+01  5.596823000e+00 -4.341914200e+01  1.202690000e-01  2.612300000e-02 -1.721420000e-01  2.116126453e-01  1.443610000e-01
-1.993482340e+01  2.798682650e+00 -4.371011070e+01  7.017660000e-02  3.982650000e-03 -6.111070000e-02  9.314040124e-02  1.401080000e-01
-1.853601200e+01  2.969177800e+01 -3.424340000e+01  5.019880000e-01  3.967780000e-01 -1.646400000e+00  1.766368504e+00  2.450930000e-01
-1.892489900e+01  2.765019800e+01 -3.560840000e+01  4.441010000e-01  3.581980000e-01 -1.519400000e+00  1.622993489e+00  2.268280000e-01
-1.939110200e+01  2.548057300e+01 -3.682409000e+01  3.918980000e-01  3.155730000e-01 -1.383090000e+00  1.471770467e+00  2.100730000e-01
-1.988407900e+01  2.320720900e+01 -3.790639000e+01  3.459210000e-01  2.712090000e-01 -1.238390000e+00  1.314087308e+00  1.948190000e-01
-2.036902700e+01  2.084791000e+01 -3.886283000e+01  3.059730000e-01  2.269100000e-01 -1.086830000e+00  1.151654060e+00  1.811810000e-01
-2.082877700e+01  1.841717500e+01 -3.969944000e+01  2.712230000e-01  1.841750000e-01 -9.304400000e-01  9.865094728e-01  1.693970000e-01
-2.125164200e+01  1.592323300e+01 -4.041767700e+01  2.403580000e-01  1.442330000e-01 -7.716770000e-01  8.210118871e-01  1.598030000e-01
-2.163533400e+01  1.337604600e+01 -4.101747700e+01  2.116660000e-01  1.080460000e-01 -6.134770000e-01  6.578985204e-01  1.528090000e-01
-2.197192900e+01  1.078031500e+01 -4.150324800e+01  1.830710000e-01  7.631500000e-02 -4.592480000e-01  5.002476344e-01  1.488080000e-01
-2.224900100e+01  8.137816100e+00 -4.188406000e+01  1.519990000e-01  4.931610000e-02 -3.130600000e-01  3.514858992e-01  1.480030000e-01
-2.243698400e+01  5.451586600e+00 -4.218494600e+01  1.150160000e-01  2.718660000e-02 -1.799460000e-01  2.152866795e-01  1.518310000e-01
-2.250015980e+01  2.725076030e+00 -4.245412030e+01  6.884020000e-02  4.376030000e-03 -6.612030000e-02  9.555112164e-02  1.473210000e-01
-2.079573700e+01  2.903974900e+01 -3.349577000e+01  4.452630000e-01  3.837490000e-01 -1.658770000e+00  1.759841001e+00  2.550650000e-01
-2.120869300e+01  2.705102000e+01 -3.477318000e+01  3.913070000e-01  3.490200000e-01 -1.533180000e+00  1.620363244e+00  2.369060000e-01
-2.170588500e+01  2.492857900e+01 -3.589980000e+01  3.431150000e-01  3.095790000e-01 -1.397800000e+00  1.472213266e+00  2.201960000e-01
-2.223049700e+01  2.269974800e+01 -3.689659000e+01  3.015030000e-01  2.677480000e-01 -1.253590000e+00  1.316845070e+00  2.048980000e-01
-2.274661300e+01  2.038442200e+01 -3.777509000e+01  2.663870000e-01  2.254220000e-01 -1.102090000e+00  1.156018806e+00  1.910880000e-01
-2.323203400e+01  1.799913200e+01 -3.854037800e+01  2.369660000e-01  1.841320000e-01 -9.453780000e-01  9.918654352e-01  1.789990000e-01
-2.367617200e+01  1.555315900e+01 -3.919595200e+01  2.118280000e-01  1.451590000e-01 -7.859520000e-01  8.268390310e-01  1.690330000e-01
-2.407292400e+01  1.305550500e+01 -3.974278100e+01  1.890760000e-01  1.095050000e-01 -6.267810000e-01  6.637736819e-01  1.616700000e-01
-2.441862400e+01  1.051291560e+01 -4.018529700e+01  1.663760000e-01  7.791560000e-02 -4.712970000e-01  5.058385872e-01  1.573560000e-01
-2.470212900e+01  7.929117800e+00 -4.053055200e+01  1.408710000e-01  5.071780000e-02 -3.235520000e-01  3.565148392e-01  1.562910000e-01
-2.490112900e+01  5.308244800e+00 -4.080245600e+01  1.088710000e-01  2.804480000e-02 -1.884560000e-01  2.194426335e-01  1.598530000e-01
-2.499099010e+01  2.653085810e+00 -4.104755470e+01  6.700990000e-02  4.685810000e-03 -7.155470000e-02  9.814458011e-02  1.550910000e-01
-2.296341900e+01  2.834739900e+01 -3.267932000e+01  3.885810000e-01  3.673990000e-01 -1.665320000e+00  1.749076305e+00  2.645840000e-01
-2.340140900e+01  2.642987600e+01 -3.384892000e+01  3.385910000e-01  3.368760000e-01 -1.542920000e+00  1.615156782e+00  2.469040000e-01
-2.393183700e+01  2.436389700e+01 -3.487394000e+01  2.941630000e-01  3.008970000e-01 -1.409940000e+00  1.471394467e+00  2.306170000e-01
-2.448949300e+01  2.218494300e+01 -3.577724000e+01  2.565070000e-01  2.619430000e-01 -1.267240000e+00  1.319207032e+00  2.155570000e-01
-2.503613400e+01  1.991790300e+01 -3.657060000e+01  2.258660000e-01  2.219030000e-01 -1.116600000e+00  1.160625672e+00  2.016990000e-01
-2.554851700e+01  1.758040000e+01 -3.725918600e+01  2.014830000e-01  1.824000000e-01 -9.601860000e-01  9.979089707e-01  1.893440000e-01
-2.601311100e+01  1.518473700e+01 -3.784861500e+01  1.818890000e-01  1.447370000e-01 -8.006150000e-01  8.336766674e-01  1.789970000e-01
-2.642599300e+01  1.273995100e+01 -3.833787700e+01  1.650070000e-01  1.099510000e-01 -6.408770000e-01  6.708501037e-01  1.712250000e-01
-2.678174100e+01  1.025281530e+01 -3.873139600e+01  1.482590000e-01  7.881530000e-02 -4.843960000e-01  5.126715005e-01  1.665420000e-01
-2.707348700e+01  7.729084600e+00 -3.903714600e+01  1.285130000e-01  5.168460000e-02 -3.351460000e-01  3.626427034e-01  1.651690000e-01
-2.728318900e+01  5.172779300e+00 -3.927685300e+01  1.018110000e-01  2.867930000e-02 -1.978530000e-01  2.243519369e-01  1.684550000e-01
-2.739732920e+01  2.585606450e+00 -3.949348710e+01  6.467080000e-02  4.906450000e-03 -7.748710000e-02  1.010476931e-01  1.634500000e-01
-2.496777200e+01  2.768031000e+01 -3.180032000e+01  3.352280000e-01  3.493100000e-01 -1.668320000e+00  1.737149075e+00  2.736020000e-01
-2.544722500e+01  2.585903300e+01 -3.282837000e+01  2.887750000e-01  3.230330000e-01 -1.552370000e+00  1.611705288e+00  2.571390000e-01
-2.602500400e+01  2.386184000e+01 -3.373251000e+01  2.469960000e-01  2.908400000e-01 -1.423510000e+00  1.473762413e+00  2.418530000e-01
-2.662870200e+01  2.173489800e+01 -3.453339000e+01  2.122980000e-01  2.548980000e-01 -1.283390000e+00  1.325569056e+00  2.272250000e-01
-2.721375600e+01  1.951230100e+01 -3.523808000e+01  1.852440000e-01  2.173010000e-01 -1.134080000e+00  1.169475314e+00  2.133450000e-01
-2.775774100e+01  1.721872000e+01 -3.584918200e+01  1.652590000e-01  1.797200000e-01 -9.781820000e-01  1.008191371e+00  2.006920000e-01
-2.824822600e+01  1.486651700e+01 -3.636946600e+01  1.507740000e-01  1.435170000e-01 -8.184660000e-01  8.445214749e-01  1.898890000e-01
-2.868045700e+01  1.246776400e+01 -3.680000000e+01  1.395430000e-01  1.097640000e-01 -6.580000000e-01  6.815309124e-01  1.816070000e-01
-2.904926700e+01  1.003035430e+01 -3.714319000e+01  1.287330000e-01  7.925430000e-02 -5.001900000e-01  5.225356117e-01  1.764460000e-01
-2.935007900e+01  7.559057800e+00 -3.740691700e+01  1.149210000e-01  5.235780000e-02 -3.489170000e-01  3.710677140e-01  1.746780000e-01
-2.957215320e+01  5.058161700e+00 -3.761173900e+01  9.384680000e-02  2.916170000e-02 -2.087390000e-01  2.307154020e-01  1.776550000e-01
-2.970815260e+01  2.528448520e+00 -3.779716660e+01  6.184740000e-02  5.048520000e-03 -8.416660000e-02  1.045686616e-01  1.724230000e-01
-2.670781400e+01  2.715761800e+01 -3.086527000e+01  2.901860000e-01  3.316180000e-01 -1.674270000e+00  1.731288089e+00  2.829470000e-01
-2.727701300e+01  2.545474100e+01 -3.169300000e+01  2.449870000e-01  3.097410000e-01 -1.568000000e+00  1.616966950e+00  2.690010000e-01
-2.793729600e+01  2.352409900e+01 -3.245308000e+01  2.037040000e-01  2.810990000e-01 -1.445080000e+00  1.486192509e+00  2.549960000e-01
-2.860908400e+01  2.143812700e+01 -3.314489000e+01  1.699160000e-01  2.481270000e-01 -1.307890000e+00  1.342018892e+00  2.407130000e-01
-2.924903700e+01  1.924688700e+01 -3.376178000e+01  1.449630000e-01  2.128870000e-01 -1.159780000e+00  1.188034004e+00  2.266580000e-01
-2.983670900e+01  1.698113100e+01 -3.429888000e+01  1.282910000e-01  1.771310000e-01 -1.003880000e+00  1.027428356e+00  2.134910000e-01
-3.036174700e+01  1.465630200e+01 -3.475326400e+01  1.182530000e-01  1.423020000e-01 -8.432640000e-01  8.633236965e-01  2.019830000e-01
-3.081863300e+01  1.228752200e+01 -3.512510300e+01  1.123670000e-01  1.095220000e-01 -6.811030000e-01  6.989439947e-01  1.929370000e-01
-3.120649100e+01  9.880613700e+00 -3.541882200e+01  1.075090000e-01  7.961370000e-02 -5.208220000e-01  5.377286323e-01  1.870750000e-01
-3.152110710e+01  7.442946500e+00 -3.564025700e+01  9.989290000e-02  5.294650000e-02 -3.662570000e-01  3.833094225e-01  1.847630000e-01
-3.175612540e+01  4.978495900e+00 -3.580986200e+01  8.487460000e-02  2.959590000e-02 -2.218620000e-01  2.393791179e-01  1.873940000e-01
-3.191346810e+01  2.487929200e+00 -3.596190530e+01  5.853190000e-02  5.129200000e-03 -9.190530000e-02  1.090819700e-01  1.819900000e-01
-4.811043400e+01  2.869783200e+00 -3.113545000e+00 -1.054340000e-01 -2.551680000e-02 -2.242450000e-01  2.491049085e-01  3.423380000e-01
-4.790279800e+01  5.723300500e+00 -3.299274000e+00 -2.107980000e-01 -5.889950000e-02 -4.365740000e-01  4.883664663e-01  3.684720000e-01
-4.751861000e+01  8.543556000e+00 -3.478718000e+00 -2.836100000e-01 -1.064440000e-01 -6.448180000e-01  7.124290915e-01  3.979380000e-01
-4.691326400e+01  1.131827700e+01 -3.651952000e+00 -2.962640000e-01 -1.697230000e-01 -8.512520000e-01  9.171740412e-01  4.274870000e-01
-4.606763900e+01  1.402645000e+01 -3.819910000e+00 -2.356390000e-01 -2.585500000e-01 -1.057610000e+00  1.113962635e+00  4.533530000e-01
-4.497666490e+01  1.664728800e+01 -3.982410000e+00 -9.366490000e-02 -3.837120000e-01 -1.264110000e+00  1.324379894e+00  4.733920000e-01
-4.364185600e+01  1.915913500e+01 -4.139710000e+00  1.301440000e-01 -5.558650000e-01 -1.471210000e+00  1.578094491e+00  4.871380000e-01
-4.207392900e+01  2.154326200e+01 -4.292680000e+00  4.290710000e-01 -7.827380000e-01 -1.679180000e+00  1.901690346e+00  4.960240000e-01
-4.029198400e+01  2.378970000e+01 -4.442540000e+00  7.890160000e-01 -1.066300000e+00 -1.888040000e+00  2.307430818e+00  5.025680000e-01
-3.832268000e+01  2.589543000e+01 -4.592310000e+00  1.189320000e+00 -1.399570000e+00 -2.096510000e+00  2.787226655e+00  5.087880000e-01
-3.619672000e+01  2.786844000e+01 -4.745890000e+00  1.604280000e+00 -1.764560000e+00 -2.300990000e+00  3.313901219e+00  5.149600000e-01
-3.394482000e+01  2.972826000e+01 -4.904980000e+00  2.006180000e+00 -2.132740000e+00 -2.494580000e+00  3.846591670e+00  5.200610000e-01
-4.777822960e+01  2.852381200e+00 -5.994396000e+00 -8.622960000e-02 -1.951880000e-02 -2.251960000e-01  2.419292580e-01  3.308450000e-01
-4.754034300e+01  5.697417500e+00 -6.159521000e+00 -1.853430000e-01 -4.018250000e-02 -4.424210000e-01  4.813553804e-01  3.531210000e-01
-4.715224200e+01  8.513155900e+00 -6.316312000e+00 -2.622420000e-01 -7.324410000e-02 -6.557120000e-01  7.099956279e-01  3.810020000e-01
-4.656244800e+01  1.128840600e+01 -6.460911000e+00 -2.914480000e-01 -1.185940000e-01 -8.656110000e-01  9.210259914e-01  4.112180000e-01
-4.574946000e+01  1.400429100e+01 -6.591870000e+00 -2.594600000e-01 -1.837090000e-01 -1.072570000e+00  1.118693387e+00  4.394560000e-01
-4.470540000e+01  1.664309200e+01 -6.707910000e+00 -1.574000000e-01 -2.769080000e-01 -1.276010000e+00  1.315163230e+00  4.629480000e-01
-4.343000070e+01  1.918329500e+01 -6.808410000e+00  1.699930000e-02 -4.067050000e-01 -1.475510000e+00  1.530629836e+00  4.802750000e-01
-4.193122000e+01  2.160941200e+01 -6.893770000e+00  2.597800000e-01 -5.795880000e-01 -1.670670000e+00  1.787329334e+00  4.914840000e-01
-4.022556100e+01  2.390830600e+01 -6.966740000e+00  5.604390000e-01 -7.976940000e-01 -1.861040000e+00  2.100923005e+00  4.977920000e-01
-3.833584600e+01  2.607694000e+01 -7.034540000e+00  9.021540000e-01 -1.056060000e+00 -2.045440000e+00  2.472441983e+00  5.009010000e-01
-3.628656000e+01  2.811772000e+01 -7.109670000e+00  1.262440000e+00 -1.340280000e+00 -2.220970000e+00  2.884928591e+00  5.020240000e-01
-3.410825000e+01  3.004423000e+01 -7.203780000e+00  1.615750000e+00 -1.626770000e+00 -2.382580000e+00  3.306617025e+00  5.021430000e-01
-4.730156390e+01  2.829849700e+00 -8.851512000e+00 -6.656390000e-02 -1.405030000e-02 -2.222120000e-01  2.323926347e-01  3.181690000e-01
-4.704683800e+01  5.660731000e+00 -8.994416000e+00 -1.568380000e-01 -2.296900000e-02 -4.410160000e-01  4.686372216e-01  3.364660000e-01
-4.665875900e+01  8.465921700e+00 -9.127531000e+00 -2.337590000e-01 -4.257830000e-02 -6.569310000e-01  6.985803608e-01  3.612080000e-01
-4.608423000e+01  1.123577310e+01 -9.243314000e+00 -2.742300000e-01 -7.122690000e-02 -8.689140000e-01  9.139403173e-01  3.902680000e-01
-4.530372900e+01  1.395336600e+01 -9.338130000e+00 -2.647290000e-01 -1.146340000e-01 -1.076230000e+00  1.114223232e+00  4.190790000e-01
-4.430591300e+01  1.660079400e+01 -9.409460000e+00 -1.959130000e-01 -1.792060000e-01 -1.277460000e+00  1.304760800e+00  4.445470000e-01
-4.309011240e+01  1.916127100e+01 -9.456040000e+00 -6.411240000e-02 -2.717290000e-01 -1.471440000e+00  1.497692466e+00  4.647520000e-01
-4.166300900e+01  2.161729200e+01 -9.478070000e+00  1.289910000e-01 -3.977080000e-01 -1.657170000e+00  1.709099980e+00  4.789350000e-01
-4.003700100e+01  2.395754600e+01 -9.479470000e+00  3.759990000e-01 -5.594540000e-01 -1.833770000e+00  1.953733973e+00  4.873070000e-01
-3.822942200e+01  2.617545600e+01 -9.472180000e+00  6.635780000e-01 -7.535440000e-01 -1.999980000e+00  2.237874957e+00  4.907820000e-01
-3.626255500e+01  2.827039100e+01 -9.477120000e+00  9.724450000e-01 -9.686090000e-01 -2.153620000e+00  2.553807310e+00  4.905110000e-01
-3.416031000e+01  3.024980000e+01 -9.515420000e+00  1.279690000e+00 -1.185200000e+00 -2.291020000e+00  2.879423237e+00  4.886560000e-01
-4.666433840e+01  2.800973880e+00 -1.167563400e+01 -4.733840000e-02 -9.226120000e-03 -2.156340000e-01  2.209616875e-01  3.049700000e-01
-4.639872900e+01  5.610085180e+00 -1.179507400e+01 -1.267290000e-01 -8.114820000e-03 -4.330740000e-01  4.513082973e-01  3.197190000e-01
-4.601111600e+01  8.396951200e+00 -1.190324900e+01 -2.001160000e-01 -1.594880000e-02 -6.492490000e-01  6.795771050e-01  3.405710000e-01
-4.545399900e+01  1.115291400e+01 -1.198983400e+01 -2.469990000e-01 -3.008600000e-02 -8.618340000e-01  8.970348471e-01  3.673820000e-01
-4.470609900e+01  1.386220480e+01 -1.205006000e+01 -2.540990000e-01 -5.479520000e-02 -1.069060000e+00  1.100208207e+00  3.955210000e-01
-4.375492900e+01  1.651001540e+01 -1.207877000e+01 -2.119290000e-01 -9.498460000e-02 -1.268770000e+00  1.289850103e+00  4.217960000e-01
-4.260081600e+01  1.907792200e+01 -1.207516000e+01 -1.158160000e-01 -1.560780000e-01 -1.459160000e+00  1.472046736e+00  4.440450000e-01
-4.124662620e+01  2.155226200e+01 -1.203770000e+01  3.437380000e-02 -2.427380000e-01 -1.638700000e+00  1.656937230e+00  4.610390000e-01
-3.970213900e+01  2.392067700e+01 -1.197313000e+01  2.338610000e-01 -3.573230000e-01 -1.806130000e+00  1.855930028e+00  4.723200000e-01
-3.798255800e+01  2.617335100e+01 -1.189825000e+01  4.724420000e-01 -4.976490000e-01 -1.960050000e+00  2.076692556e+00  4.780660000e-01
-3.610299800e+01  2.830626300e+01 -1.184122000e+01  7.340020000e-01 -6.547370000e-01 -2.098620000e+00  2.317681035e+00  4.789310000e-01
-3.408159700e+01  3.032232700e+01 -1.183236000e+01  9.984030000e-01 -8.126730000e-01 -2.219360000e+00  2.565697715e+00  4.773760000e-01
-4.586307790e+01  2.765621470e+00 -1.445610400e+01 -2.907790000e-02 -5.178530000e-03 -2.061040000e-01  2.082095105e-01  2.915360000e-01
-4.558913170e+01  5.545053610e+00 -1.455047700e+01 -9.613170000e-02  4.153610000e-03 -4.194770000e-01  4.303713626e-01  3.033870000e-01
-4.520511200e+01  8.305219960e+00 -1.463456600e+01 -1.631120000e-01  6.119960000e-03 -6.335660000e-01  6.542544267e-01  3.200840000e-01
-4.466611700e+01  1.103807945e+01 -1.469209500e+01 -2.121170000e-01  4.079450000e-03 -8.450950000e-01  8.713184393e-01  3.439430000e-01
-4.395042500e+01  1.373084359e+01 -1.471840000e+01 -2.304250000e-01 -5.156410000e-03 -1.051400000e+00  1.076366215e+00  3.704500000e-01
-4.304765900e+01  1.636670610e+01 -1.470571000e+01 -2.086590000e-01 -2.529390000e-02 -1.249710000e+00  1.267262184e+00  3.964810000e-01
-4.195649400e+01  1.893234480e+01 -1.465471000e+01 -1.414940000e-01 -6.065520000e-02 -1.437710000e+00  1.445928646e+00  4.197930000e-01
-4.067840860e+01  2.141183300e+01 -1.456341000e+01 -2.740860000e-02 -1.151670000e-01 -1.613410000e+00  1.617747353e+00  4.389090000e-01
-3.922004600e+01  2.379384800e+01 -1.443818000e+01  1.309540000e-01 -1.911520000e-01 -1.775180000e+00  1.790237992e+00  4.529730000e-01
-3.759186200e+01  2.606664700e+01 -1.430144000e+01  3.261380000e-01 -2.873530000e-01 -1.921440000e+00  1.969992237e+00  4.616330000e-01
-3.580293300e+01  2.822317800e+01 -1.418956000e+01  5.450670000e-01 -3.968220000e-01 -2.050560000e+00  2.158555547e+00  4.649970000e-01
-3.386754900e+01  3.026044900e+01 -1.414068000e+01  7.704510000e-01 -5.065510000e-01 -2.160680000e+00  2.349197038e+00  4.652660000e-01
-4.489825010e+01  2.723892990e+00 -1.718326200e+01 -1.225010000e-02 -1.907010000e-03 -1.942620000e-01  1.946572020e-01  2.780730000e-01
-4.462021190e+01  5.465723900e+00 -1.725314300e+01 -6.621190000e-02  1.382390000e-02 -4.011430000e-01  4.068056322e-01  2.876940000e-01
-4.424162600e+01  8.191106800e+00 -1.731088500e+01 -1.246260000e-01  2.360680000e-02 -6.108850000e-01  6.239145808e-01  3.003060000e-01
-4.372218500e+01  1.089322590e+01 -1.734056100e+01 -1.721850000e-01  3.122590000e-02 -8.195610000e-01  8.380351805e-01  3.208020000e-01
-4.304093600e+01  1.355833920e+01 -1.733278000e+01 -1.969360000e-01  3.433920000e-02 -1.023780000e+00  1.043114786e+00  3.449550000e-01
-4.218786100e+01  1.617316330e+01 -1.728130000e+01 -1.898610000e-01  3.016330000e-02 -1.220300000e+00  1.235349794e+00  3.698420000e-01
-4.116128600e+01  1.872427450e+01 -1.718538000e+01 -1.452860000e-01  1.527450000e-02 -1.406380000e+00  1.413946971e+00  3.932400000e-01
-3.996069660e+01  2.119737790e+01 -1.704267000e+01 -6.069660000e-02 -1.362210000e-02 -1.579670000e+00  1.580894351e+00  4.135750000e-01
-3.859203780e+01  2.358025790e+01 -1.686320000e+01  6.296220000e-02 -5.874210000e-02 -1.738200000e+00  1.740331610e+00  4.297720000e-01
-3.705942900e+01  2.586147700e+01 -1.667016000e+01  2.205710000e-01 -1.195230000e-01 -1.880160000e+00  1.896823381e+00  4.411390000e-01
-3.536712600e+01  2.802630000e+01 -1.650889000e+01  4.018740000e-01 -1.907000000e-01 -2.003890000e+00  2.052667614e+00  4.473470000e-01
-3.351962100e+01  3.006820900e+01 -1.642692000e+01  5.923790000e-01 -2.617910000e-01 -2.107920000e+00  2.205169865e+00  4.500560000e-01
-4.377416966e+01  2.675913727e+00 -1.984773400e+01  2.830340000e-03  6.137270000e-04 -1.807340000e-01  1.807572025e-01  2.647250000e-01
-4.349488790e+01  5.372932200e+00 -1.989105700e+01 -3.788790000e-02  2.103220000e-02 -3.790570000e-01  3.815259567e-01  2.727400000e-01
-4.312532480e+01  8.055717000e+00 -1.992337700e+01 -8.632480000e-02  3.671700000e-02 -5.823770000e-01  5.898839541e-01  2.815910000e-01
-4.262764500e+01  1.071768790e+01 -1.992439700e+01 -1.296450000e-01  5.168790000e-02 -7.863970000e-01  7.986862379e-01  2.985840000e-01
-4.198184800e+01  1.334724630e+01 -1.988316800e+01 -1.568480000e-01  6.424630000e-02 -9.871680000e-01  1.001613470e+00  3.199070000e-01
-4.118046400e+01  1.593131980e+01 -1.979511000e+01 -1.594640000e-01  7.231980000e-02 -1.181110000e+00  1.194018322e+00  3.429430000e-01
-4.022074100e+01  1.845820860e+01 -1.965615000e+01 -1.317410000e-01  7.320860000e-02 -1.365150000e+00  1.373444470e+00  3.655730000e-01
-3.910050760e+01  2.091416860e+01 -1.946668000e+01 -7.050760000e-02  6.416860000e-02 -1.536680000e+00  1.539634487e+00  3.862070000e-01
-3.782442330e+01  2.328713440e+01 -1.923640000e+01  2.457670000e-02  4.313440000e-02 -1.693400000e+00  1.694127549e+00  4.036770000e-01
-3.639165000e+01  2.556215020e+01 -1.899324000e+01  1.503500000e-01  1.015020000e-02 -1.833240000e+00  1.839423020e+00  4.170980000e-01
-3.479892300e+01  2.772306110e+01 -1.878833000e+01  2.990770000e-01 -3.093890000e-02 -1.954330000e+00  1.977323953e+00  4.258190000e-01
-3.304608600e+01  2.975517480e+01 -1.867626000e+01  4.589140000e-01 -7.182520000e-02 -2.055260000e+00  2.107096245e+00  4.308610000e-01
-4.249604190e+01  2.622656580e+00 -2.244012300e+01  1.595810000e-02  2.456580000e-03 -1.661230000e-01  1.669058024e-01  2.516060000e-01
-4.221889820e+01  5.268306400e+00 -2.245724800e+01 -1.189820000e-02  2.600640000e-02 -3.542480000e-01  3.554005424e-01  2.585480000e-01
-4.186164340e+01  7.901649600e+00 -2.246236900e+01 -4.964340000e-02  4.584960000e-02 -5.493690000e-01  5.535096667e-01  2.641400000e-01
-4.138772630e+01  1.051707000e+01 -2.243406000e+01 -8.672630000e-02  6.607000000e-02 -7.470600000e-01  7.549737344e-01  2.777300000e-01
-4.078120700e+01  1.310247190e+01 -2.236198100e+01 -1.132070000e-01  8.547190000e-02 -9.429810000e-01  9.535902878e-01  2.959990000e-01
-4.003331400e+01  1.564752200e+01 -2.223733000e+01 -1.213140000e-01  1.025220000e-01 -1.133330000e+00  1.144405844e+00  3.167120000e-01
-3.914242900e+01  1.814010900e+01 -2.205883000e+01 -1.054290000e-01  1.151090000e-01 -1.314830000e+00  1.324063173e+00  3.379080000e-01
-3.810602640e+01  2.056995800e+01 -2.182565000e+01 -6.202640000e-02  1.209580000e-01 -1.484650000e+00  1.490860065e+00  3.580470000e-01
-3.692482690e+01  2.292218500e+01 -2.154823000e+01  1.017310000e-02  1.181850000e-01 -1.640230000e+00  1.644513800e+00  3.759380000e-01
-3.559542700e+01  2.518143800e+01 -2.125915000e+01  1.095730000e-01  1.064380000e-01 -1.779150000e+00  1.785695946e+00  3.906110000e-01
-3.410636000e+01  2.732438360e+01 -2.101518000e+01  2.306400000e-01  8.838360000e-02 -1.899180000e+00  1.915173920e+00  4.012060000e-01
-3.245108600e+01  2.933341990e+01 -2.087675000e+01  3.639140000e-01  7.041990000e-02 -1.998750000e+00  2.032829045e+00  4.080960000e-01
-4.106695190e+01  2.565709330e+00 -2.495003500e+01  2.704810000e-02  3.709330000e-03 -1.510350000e-01  1.534826703e-01  2.388040000e-01
-4.079776000e+01  5.155965100e+00 -2.493985900e+01  1.124000000e-02  2.906510000e-02 -3.278590000e-01  3.293366690e-01  2.450970000e-01
-4.045573650e+01  7.735442300e+00 -2.491847000e+01 -1.573650000e-02  5.154230000e-02 -5.134700000e-01  5.162903127e-01  2.480330000e-01
-4.000933340e+01  1.029819150e+01 -2.486147400e+01 -4.533340000e-02  7.519150000e-02 -7.034740000e-01  7.089319766e-01  2.585270000e-01
-3.944373230e+01  1.283419620e+01 -2.475730500e+01 -6.873230000e-02  9.919620000e-02 -8.933050000e-01  9.014199011e-01  2.737650000e-01
-3.875293550e+01  1.533444500e+01 -2.459905000e+01 -7.893550000e-02  1.224450000e-01 -1.079050000e+00  1.088839976e+00  2.919320000e-01
-3.793163640e+01  1.778728200e+01 -2.438231000e+01 -7.063640000e-02  1.432820000e-01 -1.257310000e+00  1.267417717e+00  3.112690000e-01
-3.698118060e+01  2.018184000e+01 -2.410810000e+01 -4.018060000e-02  1.598400000e-01 -1.425100000e+00  1.434598660e+00  3.303230000e-01
-3.589868480e+01  2.250541100e+01 -2.378763000e+01  1.431520000e-02  1.704110000e-01 -1.579630000e+00  1.588859897e+00  3.479250000e-01
-3.467552910e+01  2.473835600e+01 -2.345509000e+01  9.247090000e-02  1.743560000e-01 -1.718090000e+00  1.729388369e+00  3.630840000e-01
-3.329547200e+01  2.685131600e+01 -2.317371000e+01  1.905280000e-01  1.733160000e-01 -1.837710000e+00  1.855671684e+00  3.748290000e-01
-3.174492800e+01  2.882004900e+01 -2.300951000e+01  3.010720000e-01  1.720490000e-01 -1.936510000e+00  1.967311919e+00  3.829530000e-01
-3.949485660e+01  2.510484890e+00 -2.736918600e+01  3.614340000e-02  4.484890000e-03 -1.361860000e-01  1.409719341e-01  2.263900000e-01
-3.923876430e+01  5.046388900e+00 -2.733035200e+01  3.123570000e-02  3.058890000e-02 -3.013520000e-01  3.045067777e-01  2.323390000e-01
-3.891644340e+01  7.572766300e+00 -2.728084400e+01  1.455660000e-02  5.446630000e-02 -4.768440000e-01  4.801652557e-01  2.332580000e-01
-3.849999739e+01  1.008407500e+01 -2.719439100e+01 -6.997390000e-03  8.007500000e-02 -6.583910000e-01  6.632794871e-01  2.411230000e-01
-3.797671420e+01  1.256988600e+01 -2.705833000e+01 -2.571420000e-02  1.068860000e-01 -8.413300000e-01  8.484821778e-01  2.535840000e-01
-3.734138330e+01  1.502209700e+01 -2.686572000e+01 -3.538330000e-02  1.340970000e-01 -1.021720000e+00  1.031089590e+00  2.692440000e-01
-3.659212230e+01  1.743140900e+01 -2.661111000e+01 -3.112230000e-02  1.604090000e-01 -1.196110000e+00  1.207219440e+00  2.865690000e-01
-3.572634360e+01  1.978727600e+01 -2.629742000e+01 -9.343600000e-03  1.842760000e-01 -1.361420000e+00  1.373866574e+00  3.042120000e-01
-3.474182460e+01  2.207615000e+01 -2.593364000e+01  3.217540000e-02  2.041500000e-01 -1.514640000e+00  1.528674854e+00  3.210410000e-01
-3.362717590e+01  2.427312800e+01 -2.555851000e+01  9.382410000e-02  2.191280000e-01 -1.652510000e+00  1.669613531e+00  3.360710000e-01
-3.236480700e+01  2.634299900e+01 -2.523658000e+01  1.731930000e-01  2.299990000e-01 -1.771580000e+00  1.794823404e+00  3.482790000e-01
-3.093869900e+01  2.824796400e+01 -2.504024000e+01  2.643010000e-01  2.399640000e-01 -1.869240000e+00  1.903022837e+00  3.570300000e-01
-3.778653050e+01  2.467505100e+00 -2.968745900e+01  4.346950000e-02  4.905100000e-03 -1.224590000e-01  1.300379334e-01  2.144380000e-01
-3.754989510e+01  4.960226000e+00 -2.961957200e+01  4.810490000e-02  3.102600000e-02 -2.765720000e-01  2.824336475e-01  2.202250000e-01
-3.725015790e+01  7.442794300e+00 -2.954030100e+01  4.084210000e-02  5.539430000e-02 -4.423010000e-01  4.476234804e-01  2.197240000e-01
-3.686470720e+01  9.909511500e+00 -2.942347400e+01  2.729280000e-02  8.191150000e-02 -6.154740000e-01  6.215003101e-01  2.255180000e-01
-3.638282330e+01  1.235225100e+01 -2.925343300e+01  1.417670000e-02  1.102510000e-01 -7.914330000e-01  7.992011357e-01  2.356410000e-01
-3.580204635e+01  1.476182200e+01 -2.902425500e+01  6.953650000e-03  1.398220000e-01 -9.662550000e-01  9.763438277e-01  2.490580000e-01
-3.511896450e+01  1.713157800e+01 -2.872949000e+01  1.003550000e-02  1.695780000e-01 -1.136490000e+00  1.149115716e+00  2.644700000e-01
-3.433519800e+01  1.944819400e+01 -2.837297000e+01  2.680200000e-02  1.981940000e-01 -1.298970000e+00  1.314276329e+00  2.806510000e-01
-3.344646530e+01  2.169822000e+01 -2.796349000e+01  5.953470000e-02  2.242200000e-01 -1.450490000e+00  1.468924855e+00  2.964990000e-01
-3.244498100e+01  2.385149600e+01 -2.753732000e+01  1.090190000e-01  2.464960000e-01 -1.587320000e+00  1.610040435e+00  3.110230000e-01
-3.131658600e+01  2.586090300e+01 -2.715921000e+01  1.734140000e-01  2.649030000e-01 -1.705210000e+00  1.734354969e+00  3.232370000e-01
-3.005514200e+01  2.767331200e+01 -2.690782000e+01  2.478580000e-01  2.813120000e-01 -1.800820000e+00  1.839435430e+00  3.321650000e-01
-3.595255030e+01  2.450527680e+00 -3.189664100e+01  4.944970000e-02  5.127680000e-03 -1.106410000e-01  1.212971426e-01  2.030280000e-01
-3.574269690e+01  4.921401000e+00 -3.180024300e+01  6.230310000e-02  3.080100000e-02 -2.552430000e-01  2.645361354e-01  2.087190000e-01
-3.546761960e+01  7.378533200e+00 -3.169144800e+01  6.338040000e-02  5.503320000e-02 -4.124480000e-01  4.209026977e-01  2.072570000e-01
-3.510959450e+01  9.817082100e+00 -3.154217100e+01  5.740550000e-02  8.178210000e-02 -5.781710000e-01  5.867413472e-01  2.115120000e-01
-3.466573020e+01  1.222986200e+01 -3.133579900e+01  5.026980000e-02  1.108620000e-01 -7.477990000e-01  7.576415909e-01  2.197970000e-01
-3.413223180e+01  1.460981500e+01 -3.106345800e+01  4.676820000e-02  1.418150000e-01 -9.174580000e-01  9.295310326e-01  2.313740000e-01
-3.351116030e+01  1.694772800e+01 -3.072369000e+01  5.083970000e-02  1.737280000e-01 -1.083690000e+00  1.098703831e+00  2.451620000e-01
-3.280043250e+01  1.923239900e+01 -3.031527000e+01  6.556750000e-02  2.053990000e-01 -1.243270000e+00  1.261827302e+00  2.600630000e-01
-3.200293110e+01  2.144437600e+01 -2.985082000e+01  9.306890000e-02  2.353760000e-01 -1.392820000e+00  1.415631037e+00  2.750270000e-01
-3.111793500e+01  2.355022900e+01 -2.935733000e+01  1.340650000e-01  2.622290000e-01 -1.528330000e+00  1.556447899e+00  2.890520000e-01
-3.015102100e+01  2.549095400e+01 -2.889108000e+01  1.869790000e-01  2.849540000e-01 -1.645080000e+00  1.680014326e+00  3.012370000e-01
-2.911431900e+01  2.718883700e+01 -2.853434000e+01  2.466810000e-01  3.038370000e-01 -1.738340000e+00  1.781851395e+00  3.105230000e-01
 3.058481000e+01  2.969522770e+01 -3.025183200e+01  1.003810000e+00  6.922770000e-02 -8.398320000e-01  1.310627628e+00  9.380590000e-02
 3.569700000e+00  3.664758900e+01 -3.769643000e+01  1.015600000e+00  3.165890000e-01 -1.491430000e+00  1.831948525e+00  1.548750000e-01
 6.151650000e+00  3.640932800e+01 -3.734192000e+01  1.038850000e+00  3.023280000e-01 -1.436920000e+00  1.798708044e+00  1.492440000e-01
 8.717430000e+00  3.609476000e+01 -3.695634000e+01  1.056930000e+00  2.847600000e-01 -1.380340000e+00  1.761683229e+00  1.433560000e-01
 1.125780000e+01  3.569805300e+01 -3.651422000e+01  1.069800000e+00  2.650530000e-01 -1.322220000e+00  1.721334035e+00  1.374120000e-01
 1.376774000e+01  3.522485400e+01 -3.600627000e+01  1.077740000e+00  2.438540000e-01 -1.263270000e+00  1.678344236e+00  1.315160000e-01
 1.623999000e+01  3.467851500e+01 -3.542901000e+01  1.080990000e+00  2.215150000e-01 -1.204010000e+00  1.633171257e+00  1.257430000e-01
 1.866879000e+01  3.406329100e+01 -3.478286000e+01  1.079790000e+00  1.982910000e-01 -1.144860000e+00  1.586181006e+00  1.201360000e-01
 2.104637000e+01  3.338340200e+01 -3.407020000e+01  1.074370000e+00  1.744020000e-01 -1.086200000e+00  1.537698733e+00  1.147270000e-01
 2.336103000e+01  3.264609200e+01 -3.329446000e+01  1.065030000e+00  1.500920000e-01 -1.028460000e+00  1.488135236e+00  1.095500000e-01
 2.558914000e+01  3.186274300e+01 -3.246630600e+01  1.052140000e+00  1.257430000e-01 -9.723060000e-01  1.438119897e+00  1.046640000e-01
 2.766239000e+01  3.106124400e+01 -3.161839100e+01  1.036390000e+00  1.022440000e-01 -9.193910000e-01  1.389186049e+00  1.001860000e-01
 2.943140000e+01  3.030536920e+01 -3.083928600e+01  1.019400000e+00  8.136920000e-02 -8.732860000e-01  1.344777210e+00  9.633120000e-02
 3.107485300e+01  2.846895940e+01 -3.079399300e+01  9.538530000e-01  4.895940000e-02 -7.989930000e-01  1.245239890e+00  9.014130000e-02
 3.173184900e+01  2.665557310e+01 -3.148336900e+01  8.808490000e-01  2.357310000e-02 -7.383690000e-01  1.149625779e+00  8.512600000e-02
 3.244842000e+01  2.454141245e+01 -3.219437400e+01  7.964200000e-01 -2.587550000e-03 -6.673740000e-01  1.039076305e+00  8.002560000e-02
 3.314644400e+01  2.227418160e+01 -3.287819300e+01  7.064440000e-01 -2.681840000e-02 -5.911930000e-01  9.215701357e-01  7.568900000e-02
 3.378988800e+01  1.992544420e+01 -3.351348000e+01  6.138880000e-01 -4.755580000e-02 -5.124800000e-01  8.010966116e-01  7.288130000e-02
 3.436730200e+01  1.752320840e+01 -3.408960900e+01  5.203020000e-01 -6.379160000e-02 -4.326090000e-01  6.796573301e-01  7.231660000e-02
 3.487698500e+01  1.508040590e+01 -3.460179600e+01  4.269850000e-01 -7.459410000e-02 -3.527960000e-01  5.588787772e-01  7.461520000e-02
 3.531650400e+01  1.260604170e+01 -3.504755200e+01  3.355040000e-01 -7.895830000e-02 -2.745520000e-01  4.406542271e-01  8.018680000e-02
 3.568700400e+01  1.010728290e+01 -3.542898900e+01  2.480040000e-01 -7.571710000e-02 -1.999890000e-01  3.274670417e-01  8.913430000e-02
 3.598700300e+01  7.593514500e+00 -3.574856000e+01  1.670030000e-01 -6.378550000e-02 -1.315600000e-01  2.219608651e-01  1.006280000e-01
 3.621512820e+01  5.071355000e+00 -3.601701100e+01  9.612820000e-02 -4.234500000e-02 -7.301100000e-02  1.279231644e-01  1.157990000e-01
 3.637726320e+01  2.547573200e+00 -3.625614930e+01  3.426320000e-02 -1.172680000e-02 -2.314930000e-02  4.298109821e-02  1.085780000e-01
 3.119371000e+01  3.023554740e+01 -2.903774100e+01  1.035710000e+00  8.054740000e-02 -8.447410000e-01  1.338943780e+00  9.547040000e-02
 3.197604000e+01  3.095781150e+01 -2.727247800e+01  1.080040000e+00  9.781150000e-02 -8.494780000e-01  1.377558116e+00  9.805820000e-02
 3.279654000e+01  3.174925600e+01 -2.521731500e+01  1.130540000e+00  1.172560000e-01 -8.523150000e-01  1.420672559e+00  1.010980000e-01
 3.359839000e+01  3.253494600e+01 -2.299984100e+01  1.183390000e+00  1.369460000e-01 -8.518410000e-01  1.464513294e+00  1.044360000e-01
 3.435843000e+01  3.327594700e+01 -2.068434300e+01  1.236430000e+00  1.559470000e-01 -8.473430000e-01  1.507006560e+00  1.079410000e-01
 3.506162000e+01  3.395488500e+01 -1.830265700e+01  1.288620000e+00  1.738850000e-01 -8.386570000e-01  1.547295402e+00  1.115410000e-01
 3.570247000e+01  3.456460700e+01 -1.587185000e+01  1.339470000e+00  1.906070000e-01 -8.258500000e-01  1.585099092e+00  1.152010000e-01
 3.627465000e+01  3.510302700e+01 -1.340004800e+01  1.388650000e+00  2.060270000e-01 -8.090480000e-01  1.620294607e+00  1.189030000e-01
 3.677492000e+01  3.556906800e+01 -1.089738800e+01  1.435920000e+00  2.200680000e-01 -7.883880000e-01  1.652831452e+00  1.226320000e-01
 3.720304000e+01  3.596164500e+01 -8.369421000e+00  1.481040000e+00  2.326450000e-01 -7.640210000e-01  1.682656015e+00  1.263630000e-01
 3.755884000e+01  3.628359800e+01 -5.821012000e+00  1.523840000e+00  2.435980000e-01 -7.361120000e-01  1.709762910e+00  1.300750000e-01
 3.785559000e+01  3.654535400e+01 -3.254408000e+00  1.564590000e+00  2.523540000e-01 -7.050080000e-01  1.734549131e+00  1.337290000e-01
 2.868738500e+01  2.788193000e+01 -2.830677300e+01  9.393850000e-01  1.879300000e-01 -7.847730000e-01  1.238398371e+00  9.917590000e-02
 3.411613030e+01  2.556528500e+00 -3.835968390e+01  3.513030000e-02 -1.157150000e-02 -2.268390000e-02  4.338890307e-02  1.086790000e-01
 3.174502090e+01  2.602870600e+00 -4.032909080e+01  3.702090000e-02 -1.172940000e-02 -2.309080000e-02  4.518086880e-02  1.090290000e-01
 2.926643120e+01  2.667453900e+00 -4.215403330e+01  3.943120000e-02 -1.204610000e-02 -2.403330000e-02  4.772344882e-02  1.095290000e-01
 2.668509550e+01  2.738298300e+00 -4.382932120e+01  4.209550000e-02 -1.240170000e-02 -2.532120000e-02  5.066553516e-02  1.101610000e-01
 2.401390410e+01  2.810440300e+00 -4.534887790e+01  4.490410000e-02 -1.275970000e-02 -2.687790000e-02  5.386659122e-02  1.109260000e-01
 2.126184030e+01  2.882892800e+00 -4.670670800e+01  4.784030000e-02 -1.310720000e-02 -2.870800000e-02  5.731179861e-02  1.118360000e-01
 1.844194460e+01  2.957571700e+00 -4.789686830e+01  5.094460000e-02 -1.342830000e-02 -3.086830000e-02  6.106163652e-02  1.129080000e-01
 1.556732700e+01  3.039250700e+00 -4.891747140e+01  5.432700000e-02 -1.374930000e-02 -3.347140000e-02  6.527480982e-02  1.141590000e-01
 1.265216560e+01  3.135272400e+00 -4.976267550e+01  5.816560000e-02 -1.402760000e-02 -3.667550000e-02  7.017907726e-02  1.156110000e-01
 9.698426100e+00  3.250713500e+00 -5.043454660e+01  6.252610000e-02 -1.438650000e-02 -4.054660000e-02  7.589803248e-02  1.173150000e-01
 6.670140900e+00  3.369235600e+00 -5.094196780e+01  6.684090000e-02 -1.436440000e-02 -4.496780000e-02  8.182997579e-02  1.194820000e-01
 3.477163300e+00  3.394898700e+00 -5.131117350e+01  6.916330000e-02 -1.540130000e-02 -4.817350000e-02  8.568225143e-02  1.223910000e-01
 3.398196610e+01  5.104789600e+00 -3.809528020e+01  9.696610000e-02 -4.211040000e-02 -7.428020000e-02  1.292023934e-01  1.156070000e-01
 3.163554660e+01  5.200241300e+00 -4.003713300e+01  9.954660000e-02 -4.255870000e-02 -7.713300000e-02  1.329295611e-01  1.154490000e-01
 2.918310000e+01  5.330077400e+00 -4.183714620e+01  1.031000000e-01 -4.332260000e-02 -8.114620000e-02  1.381707764e-01  1.153330000e-01
 2.663206000e+01  5.472701600e+00 -4.349185300e+01  1.070600000e-01 -4.419840000e-02 -8.585300000e-02  1.441737832e-01  1.153550000e-01
 2.399316800e+01  5.618324400e+00 -4.499407880e+01  1.111680000e-01 -4.507560000e-02 -9.107880000e-02  1.506170035e-01  1.155440000e-01
 2.127637100e+01  5.764674500e+00 -4.634082140e+01  1.153710000e-01 -4.592550000e-02 -9.682140000e-02  1.574611148e-01  1.159220000e-01
 1.849573300e+01  5.914631100e+00 -4.752522200e+01  1.197330000e-01 -4.676890000e-02 -1.032220000e-01  1.648578254e-01  1.164980000e-01
 1.566139700e+01  6.074983400e+00 -4.854356300e+01  1.243970000e-01 -4.761660000e-02 -1.105630000e-01  1.731072823e-01  1.172710000e-01
 1.278249600e+01  6.254151200e+00 -4.939322700e+01  1.294960000e-01 -4.854880000e-02 -1.192270000e-01  1.825959406e-01  1.182600000e-01
 9.848020000e+00  6.450617800e+00 -5.007737300e+01  1.349200000e-01 -4.938220000e-02 -1.293730000e-01  1.933374801e-01  1.195960000e-01
 6.798006000e+00  6.615429100e+00 -5.061271800e+01  1.395060000e-01 -5.017090000e-02 -1.397180000e-01  2.037158874e-01  1.215810000e-01
 3.547437000e+00  6.593630600e+00 -5.103528500e+01  1.400370000e-01 -5.006940000e-02 -1.452850000e-01  2.079063188e-01  1.251750000e-01
 3.378869300e+01  7.656858200e+00 -3.780043700e+01  1.676930000e-01 -6.354180000e-02 -1.354370000e-01  2.247257964e-01  1.005010000e-01
 3.146885700e+01  7.802673500e+00 -3.970969100e+01  1.708570000e-01 -6.372650000e-02 -1.416910000e-01  2.309318530e-01  1.002640000e-01
 2.904042700e+01  7.997220700e+00 -4.147874300e+01  1.754270000e-01 -6.417930000e-02 -1.497430000e-01  2.394088155e-01  1.000390000e-01
 2.651349600e+01  8.210474100e+00 -4.310490300e+01  1.804960000e-01 -6.472590000e-02 -1.589030000e-01  2.490349605e-01  1.000130000e-01
 2.389761500e+01  8.427238600e+00 -4.458382400e+01  1.856150000e-01 -6.526140000e-02 -1.688240000e-01  2.592557068e-01  1.002460000e-01
 2.120565200e+01  8.643240100e+00 -4.591245000e+01  1.906520000e-01 -6.575990000e-02 -1.794500000e-01  2.699534257e-01  1.007610000e-01
 1.844664500e+01  8.860086600e+00 -4.708391200e+01  1.956450000e-01 -6.621340000e-02 -1.909120000e-01  2.812624613e-01  1.015570000e-01
 1.563069900e+01  9.083247400e+00 -4.809449000e+01  2.006990000e-01 -6.665260000e-02 -2.034900000e-01  2.934805578e-01  1.026260000e-01
 1.275989200e+01  9.316983100e+00 -4.894346600e+01  2.058920000e-01 -6.701690000e-02 -2.174660000e-01  3.068782197e-01  1.039890000e-01
 9.818026000e+00  9.549305900e+00 -4.963360100e+01  2.108260000e-01 -6.729410000e-02 -2.326010000e-01  3.210596882e-01  1.057640000e-01
 6.754210000e+00  9.713882700e+00 -5.018272500e+01  2.139100000e-01 -6.721730000e-02 -2.467250000e-01  3.333899806e-01  1.082850000e-01
 3.524079000e+00  9.656062000e+00 -5.063220900e+01  2.111790000e-01 -6.753800000e-02 -2.542090000e-01  3.373131589e-01  1.125050000e-01
 3.353028000e+01  1.020146100e+01 -3.745114800e+01  2.482800000e-01 -7.553900000e-02 -2.071480000e-01  3.320532982e-01  8.919140000e-02
 3.123868400e+01  1.039589260e+01 -3.932051000e+01  2.516840000e-01 -7.510740000e-02 -2.175100000e-01  3.410228108e-01  8.913530000e-02
 2.883288200e+01  1.065227830e+01 -4.104834900e+01  2.568820000e-01 -7.472170000e-02 -2.303490000e-01  3.530330809e-01  8.912320000e-02
 2.632759700e+01  1.093264840e+01 -4.263768100e+01  2.625970000e-01 -7.435160000e-02 -2.446810000e-01  3.665434989e-01  8.937910000e-02
 2.373315300e+01  1.121504540e+01 -4.408496100e+01  2.681530000e-01 -7.395460000e-02 -2.599610000e-01  3.807296098e-01  8.997300000e-02
 2.106131500e+01  1.149348520e+01 -4.538701700e+01  2.733150000e-01 -7.351480000e-02 -2.760170000e-01  3.953364382e-01  9.093310000e-02
 1.831905500e+01  1.176596250e+01 -4.653791100e+01  2.780550000e-01 -7.303750000e-02 -2.929110000e-01  4.104216288e-01  9.226290000e-02
 1.551542600e+01  1.203550510e+01 -4.753482100e+01  2.824260000e-01 -7.249490000e-02 -3.108210000e-01  4.261803023e-01  9.396290000e-02
 1.265037100e+01  1.230112560e+01 -4.837587900e+01  2.863710000e-01 -7.187440000e-02 -3.298790000e-01  4.427125858e-01  9.605440000e-02
 9.709984000e+00  1.254492060e+01 -4.906455700e+01  2.893840000e-01 -7.107940000e-02 -3.495570000e-01  4.593315543e-01  9.862710000e-02
 6.661350000e+00  1.270059830e+01 -4.962045000e+01  2.895500000e-01 -7.040170000e-02 -3.674500000e-01  4.730910107e-01  1.019150000e-01
 3.492108000e+00  1.263988050e+01 -5.008324100e+01  2.839080000e-01 -7.111950000e-02 -3.782410000e-01  4.782551514e-01  1.063380000e-01
 3.320508200e+01  1.272822770e+01 -3.703226600e+01  3.350820000e-01 -7.877230000e-02 -2.852660000e-01  4.470589589e-01  8.047910000e-02
 3.094346100e+01  1.296956830e+01 -3.885200400e+01  3.384610000e-01 -7.743170000e-02 -3.000040000e-01  4.588615442e-01  8.073810000e-02
 2.856297300e+01  1.328422710e+01 -4.052986400e+01  3.439730000e-01 -7.577290000e-02 -3.178640000e-01  4.744433366e-01  8.112920000e-02
 2.608097500e+01  1.362598950e+01 -4.207157000e+01  3.499750000e-01 -7.401050000e-02 -3.375700000e-01  4.918470897e-01  8.185760000e-02
 2.350955400e+01  1.396879870e+01 -4.347734700e+01  3.555540000e-01 -7.220130000e-02 -3.583470000e-01  5.099453373e-01  8.298350000e-02
 2.085835500e+01  1.430062110e+01 -4.474289200e+01  3.603550000e-01 -7.037890000e-02 -3.798920000e-01  5.283245662e-01  8.452600000e-02
 1.813728500e+01  1.461945350e+01 -4.586615500e+01  3.642850000e-01 -6.854650000e-02 -4.021550000e-01  5.469285400e-01  8.648380000e-02
 1.535131600e+01  1.492429530e+01 -4.684120600e+01  3.673160000e-01 -6.670470000e-02 -4.252060000e-01  5.658362867e-01  8.885130000e-02
 1.250134400e+01  1.521118690e+01 -4.766802500e+01  3.693440000e-01 -6.481310000e-02 -4.490250000e-01  5.850121186e-01  9.163610000e-02
 9.579232000e+00  1.546105430e+01 -4.835000000e+01  3.697320000e-01 -6.294570000e-02 -4.730000000e-01  6.036496608e-01  9.488330000e-02
 6.568494000e+00  1.561442990e+01 -4.890484600e+01  3.668940000e-01 -6.157010000e-02 -4.948460000e-01  6.190917930e-01  9.867950000e-02
 3.471818000e+00  1.557568150e+01 -4.937307000e+01  3.584180000e-01 -6.231850000e-02 -5.100700000e-01  6.265129393e-01  1.031740000e-01
 3.281369300e+01  1.522974360e+01 -3.653909800e+01  4.256930000e-01 -7.425640000e-02 -3.670980000e-01  5.670004275e-01  7.515750000e-02
 3.058583200e+01  1.551324650e+01 -3.830020800e+01  4.288320000e-01 -7.175350000e-02 -3.862080000e-01  5.815514322e-01  7.581420000e-02
 2.823442400e+01  1.588151830e+01 -3.991603800e+01  4.344240000e-01 -6.848170000e-02 -4.090380000e-01  6.006047290e-01  7.672270000e-02
 2.577846000e+01  1.628005770e+01 -4.140003500e+01  4.404600000e-01 -6.494230000e-02 -4.340350000e-01  6.217788153e-01  7.802560000e-02
 2.323379600e+01  1.667666090e+01 -4.275320400e+01  4.457960000e-01 -6.133910000e-02 -4.602040000e-01  6.436491905e-01  7.975240000e-02
 2.060996100e+01  1.705724130e+01 -4.397410500e+01  4.499610000e-01 -5.775870000e-02 -4.871050000e-01  6.656367252e-01  8.190290000e-02
 1.791579000e+01  1.741675840e+01 -4.505959500e+01  4.527900000e-01 -5.424160000e-02 -5.145950000e-01  6.875819582e-01  8.446440000e-02
 1.515621300e+01  1.775220970e+01 -4.600664000e+01  4.542130000e-01 -5.079030000e-02 -5.426400000e-01  7.094697129e-01  8.742280000e-02
 1.233405700e+01  1.805657700e+01 -4.681215000e+01  4.540570000e-01 -4.742300000e-02 -5.711500000e-01  7.311833031e-01  9.077230000e-02
 9.445871000e+00  1.831373450e+01 -4.748050300e+01  4.517710000e-01 -4.426550000e-02 -5.995030000e-01  7.519709555e-01  9.451190000e-02
 6.486075000e+00  1.847509000e+01 -4.802772600e+01  4.459750000e-01 -4.191000000e-02 -6.257260000e-01  7.695343890e-01  9.864240000e-02
 3.463376000e+00  1.846884980e+01 -4.849626100e+01  4.348760000e-01 -4.215020000e-02 -6.462610000e-01  7.800942602e-01  1.031630000e-01
 3.235707900e+01  1.769687560e+01 -3.596838300e+01  5.180790000e-01 -6.312440000e-02 -4.503830000e-01  6.893731840e-01  7.309330000e-02
 3.016887400e+01  1.801975330e+01 -3.766067800e+01  5.208740000e-01 -5.924670000e-02 -4.736780000e-01  7.065343184e-01  7.417250000e-02
 2.784941700e+01  1.843691670e+01 -3.920524400e+01  5.264170000e-01 -5.408330000e-02 -5.012440000e-01  7.288932767e-01  7.562930000e-02
 2.542436700e+01  1.888654360e+01 -4.062027900e+01  5.323670000e-01 -4.845640000e-02 -5.312790000e-01  7.536710298e-01  7.751880000e-02
 2.291236300e+01  1.933326710e+01 -4.191059500e+01  5.373630000e-01 -4.273290000e-02 -5.625950000e-01  7.791650843e-01  7.982870000e-02
 2.032182000e+01  1.975792370e+01 -4.307663400e+01  5.408200000e-01 -3.707630000e-02 -5.946340000e-01  8.046431000e-01  8.253650000e-02
 1.766151100e+01  2.015344370e+01 -4.411616900e+01  5.425110000e-01 -3.155630000e-02 -6.271690000e-01  8.298523602e-01  8.561940000e-02
 1.493831500e+01  2.051578830e+01 -4.502510000e+01  5.423150000e-01 -2.621170000e-02 -6.601000000e-01  8.547073315e-01  8.905850000e-02
 1.215506000e+01  2.083991530e+01 -4.580328200e+01  5.400600000e-01 -2.108470000e-02 -6.932820000e-01  8.790616018e-01  9.283610000e-02
 9.312940000e+00  2.110765020e+01 -4.645214200e+01  5.352400000e-01 -1.634980000e-02 -7.261420000e-01  9.022368745e-01  9.692920000e-02
 6.412041000e+00  2.128335140e+01 -4.698804100e+01  5.267410000e-01 -1.264860000e-02 -7.570410000e-01  9.223487105e-01  1.012930000e-01
 3.462573000e+00  2.131221950e+01 -4.744917500e+01  5.131730000e-01 -1.178050000e-02 -7.831750000e-01  9.364018308e-01  1.058460000e-01
 3.183681400e+01  2.012364000e+01 -3.532252300e+01  6.108140000e-01 -4.636000000e-02 -5.335230000e-01  8.123360042e-01  7.386010000e-02
 2.969227100e+01  2.048207690e+01 -3.693471700e+01  6.132710000e-01 -4.092310000e-02 -5.607170000e-01  8.319733010e-01  7.534230000e-02
 2.741074900e+01  2.094235770e+01 -3.839668500e+01  6.187490000e-01 -3.364230000e-02 -5.926850000e-01  8.574716547e-01  7.731630000e-02
 2.502261200e+01  2.143933320e+01 -3.973141900e+01  6.246120000e-01 -2.566680000e-02 -6.274190000e-01  8.856938166e-01  7.974520000e-02
 2.254730100e+01  2.192945440e+01 -4.094956400e+01  6.293010000e-01 -1.754560000e-02 -6.635640000e-01  9.146828843e-01  8.257420000e-02
 1.999612500e+01  2.239447841e+01 -4.205146500e+01  6.321250000e-01 -9.521590000e-03 -7.004650000e-01  9.435697603e-01  8.576270000e-02
 1.737879600e+01  2.282429221e+01 -4.303582900e+01  6.327960000e-01 -1.707790000e-03 -7.378290000e-01  9.720212587e-01  8.928180000e-02
 1.470015900e+01  2.321383269e+01 -4.389950300e+01  6.311590000e-01  5.832690000e-03 -7.755030000e-01  9.999002983e-01  9.310900000e-02
 1.196502500e+01  2.355602580e+01 -4.464230400e+01  6.270250000e-01  1.302580000e-02 -8.133040000e-01  1.027031362e+00  9.722350000e-02
 9.178361000e+00  2.383967150e+01 -4.526471100e+01  6.199610000e-01  1.967150000e-02 -8.507110000e-01  1.052828483e+00  1.015920000e-01
 6.341843000e+00  2.403312590e+01 -4.578336200e+01  6.090430000e-01  2.512590000e-02 -8.863620000e-01  1.075733369e+00  1.061450000e-01
 3.465896000e+00  2.409665130e+01 -4.623307700e+01  5.931960000e-01  2.765130000e-02 -9.180770000e-01  1.093394470e+00  1.107610000e-01
 3.125779000e+01  2.249712820e+01 -3.460227800e+01  7.027900000e-01 -2.487180000e-02 -6.152780000e-01  9.343978852e-01  7.684030000e-02
 2.916406500e+01  2.288928480e+01 -3.612305300e+01  7.050650000e-01 -1.771520000e-02 -6.460530000e-01  9.564595973e-01  7.868660000e-02
 2.692558300e+01  2.338987069e+01 -3.749105400e+01  7.105830000e-01 -8.129310000e-03 -6.820540000e-01  9.849832204e-01  8.111690000e-02
 2.457847300e+01  2.392841284e+01 -3.873710900e+01  7.164730000e-01  2.412840000e-03 -7.211090000e-01  1.016532130e+00  8.401550000e-02
 2.214600100e+01  2.446017280e+01 -3.987273100e+01  7.210010000e-01  1.317280000e-02 -7.617310000e-01  1.048928063e+00  8.729510000e-02
 1.964037800e+01  2.496082140e+01 -4.090118100e+01  7.233780000e-01  2.382140000e-02 -8.031810000e-01  1.081176632e+00  9.090070000e-02
 1.707125700e+01  2.542220340e+01 -4.182111000e+01  7.232570000e-01  3.420340000e-02 -8.451100000e-01  1.112870825e+00  9.479700000e-02
 1.444444300e+01  2.583722590e+01 -4.263231500e+01  7.204430000e-01  4.422590000e-02 -8.873150000e-01  1.143819022e+00  9.896020000e-02
 1.176674100e+01  2.619978940e+01 -4.333158000e+01  7.147410000e-01  5.378940000e-02 -9.295800000e-01  1.173825785e+00  1.033680000e-01
 9.041064000e+00  2.649967560e+01 -4.392242000e+01  7.057640000e-01  6.267560000e-02 -9.714200000e-01  1.202367611e+00  1.079800000e-01
 6.273144000e+00  2.671225730e+01 -4.441769000e+01  6.927440000e-01  7.025730000e-02 -1.011690000e+00  1.228147790e+00  1.127200000e-01
 3.471342000e+00  2.680990400e+01 -4.485170000e+01  6.748420000e-01  7.490400000e-02 -1.048700000e+00  1.249317423e+00  1.174420000e-01
 3.064072000e+01  2.479231378e+01 -3.380915500e+01  7.927200000e-01  3.137840000e-04 -6.941550000e-01  1.053686984e+00  8.133270000e-02
 2.861026100e+01  2.522032329e+01 -3.522020400e+01  7.952610000e-01  9.323290000e-03 -7.282040000e-01  1.078335777e+00  8.351130000e-02
 2.642217500e+01  2.576137910e+01 -3.648391900e+01  8.011750000e-01  2.137910000e-02 -7.679190000e-01  1.109972088e+00  8.634270000e-02
 2.412140300e+01  2.634068140e+01 -3.762998400e+01  8.074030000e-01  3.468140000e-02 -8.109840000e-01  1.144900630e+00  8.966080000e-02
 2.173507700e+01  2.691129940e+01 -3.867577600e+01  8.120770000e-01  4.829940000e-02 -8.557760000e-01  1.180743176e+00  9.335310000e-02
 1.927831900e+01  2.744681300e+01 -3.962348900e+01  8.143190000e-01  6.181300000e-02 -9.014890000e-01  1.216395782e+00  9.734750000e-02
 1.676172900e+01  2.793902580e+01 -4.047471800e+01  8.137290000e-01  7.502580000e-02 -9.477180000e-01  1.251380503e+00  1.016020000e-01
 1.419007700e+01  2.837881440e+01 -4.122520900e+01  8.100770000e-01  8.781440000e-02 -9.942090000e-01  1.285452314e+00  1.060900000e-01
 1.157115300e+01  2.876205000e+01 -4.187571000e+01  8.031530000e-01  1.000500000e-01 -1.040710000e+00  1.318386153e+00  1.107890000e-01
 8.909408000e+00  2.907950200e+01 -4.242874000e+01  7.926080000e-01  1.115020000e-01 -1.086740000e+00  1.349690322e+00  1.156540000e-01
 6.210394000e+00  2.931155600e+01 -4.289433000e+01  7.777940000e-01  1.215560000e-01 -1.131330000e+00  1.378276800e+00  1.206020000e-01
 3.480853000e+00  2.943871100e+01 -4.330617000e+01  7.580530000e-01  1.287110000e-01 -1.173170000e+00  1.402689816e+00  1.254810000e-01
 3.005418000e+01  2.694157950e+01 -3.293511600e+01  8.781800000e-01  2.757950000e-02 -7.671160000e-01  1.166373739e+00  8.657150000e-02
 2.811221300e+01  2.741975920e+01 -3.420323500e+01  8.822130000e-01  3.875920000e-02 -8.042350000e-01  1.194401937e+00  8.907970000e-02
 2.598245300e+01  2.801354370e+01 -3.534761800e+01  8.894530000e-01  5.354370000e-02 -8.476180000e-01  1.229816995e+00  9.231100000e-02
 2.372873700e+01  2.864185910e+01 -3.638961600e+01  8.967370000e-01  6.985910000e-02 -8.946160000e-01  1.268603692e+00  9.606100000e-02
 2.138514300e+01  2.925658440e+01 -3.734249500e+01  9.021430000e-01  8.658440000e-02 -9.434950000e-01  1.308259021e+00  1.001800000e-01
 1.897276200e+01  2.983123400e+01 -3.820836400e+01  9.047620000e-01  1.032340000e-01 -9.933640000e-01  1.347599188e+00  1.045800000e-01
 1.650116300e+01  3.035557000e+01 -3.898576000e+01  9.041630000e-01  1.195700000e-01 -1.043760000e+00  1.386088977e+00  1.092150000e-01
 1.397909100e+01  3.082343700e+01 -3.967439000e+01  9.000910000e-01  1.354370000e-01 -1.094390000e+00  1.423445279e+00  1.140590000e-01
 1.141232200e+01  3.122967200e+01 -4.027193000e+01  8.923220000e-01  1.506720000e-01 -1.144930000e+00  1.459385250e+00  1.190860000e-01
 8.807434000e+00  3.156401300e+01 -4.078191000e+01  8.805340000e-01  1.650130000e-01 -1.194910000e+00  1.493445454e+00  1.242450000e-01
 6.168175000e+00  3.181585900e+01 -4.121447000e+01  8.641750000e-01  1.778590000e-01 -1.243470000e+00  1.524680260e+00  1.294510000e-01
 3.501308000e+00  3.197076400e+01 -4.160068000e+01  8.428080000e-01  1.877640000e-01 -1.289680000e+00  1.552048693e+00  1.345450000e-01
 2.961840300e+01  2.883153290e+01 -3.196700300e+01  9.554030000e-01  5.453290000e-02 -8.290030000e-01  1.266102169e+00  9.175350000e-02
 2.779168500e+01  2.940586940e+01 -3.303162200e+01  9.636850000e-01  6.886940000e-02 -8.696220000e-01  1.299874685e+00  9.476130000e-02
 2.572011900e+01  3.008305820e+01 -3.403611000e+01  9.741190000e-01  8.705820000e-02 -9.171100000e-01  1.340737748e+00  9.853180000e-02
 2.350067700e+01  3.078079000e+01 -3.497339700e+01  9.836770000e-01  1.067900000e-01 -9.683970000e-01  1.384491710e+00  1.028020000e-01
 2.118570700e+01  3.145296600e+01 -3.583860000e+01  9.907070000e-01  1.269660000e-01 -1.021600000e+00  1.428736255e+00  1.074110000e-01
 1.879942000e+01  3.207707500e+01 -3.662579000e+01  9.944200000e-01  1.470750000e-01 -1.075790000e+00  1.472354005e+00  1.122740000e-01
 1.635741200e+01  3.264385800e+01 -3.733447000e+01  9.944120000e-01  1.668580000e-01 -1.130470000e+00  1.514813269e+00  1.173520000e-01
 1.386542100e+01  3.314512000e+01 -3.796229000e+01  9.904210000e-01  1.861200000e-01 -1.185290000e+00  1.555791373e+00  1.226180000e-01
 1.133221300e+01  3.357764800e+01 -3.850888000e+01  9.822130000e-01  2.046480000e-01 -1.239880000e+00  1.594968838e+00  1.280400000e-01
 8.763289000e+00  3.393413200e+01 -3.897575000e+01  9.694890000e-01  2.221320000e-01 -1.293750000e+00  1.631882535e+00  1.335580000e-01
 6.163330000e+00  3.420490300e+01 -3.937516000e+01  9.518300000e-01  2.379030000e-01 -1.346160000e+00  1.665750561e+00  1.390770000e-01
 3.539720000e+00  3.438862000e+01 -3.973542000e+01  9.290200000e-01  2.506200000e-01 -1.396420000e+00  1.695841196e+00  1.444200000e-01
 3.669300000e+00  3.881399900e+01 -3.553238000e+01  1.105300000e+00  3.809990000e-01 -1.574380000e+00  1.960999927e+00  1.655990000e-01
 3.800150000e+00  4.084461600e+01 -3.322627000e+01  1.196850000e+00  4.426160000e-01 -1.643270000e+00  2.080551643e+00  1.763680000e-01
 3.948010000e+00  4.272566700e+01 -3.078704000e+01  1.289710000e+00  4.986670000e-01 -1.697040000e+00  2.189055829e+00  1.869510000e-01
 4.102760000e+00  4.444781600e+01 -2.822283000e+01  1.383260000e+00  5.458160000e-01 -1.734830000e+00  2.284941676e+00  1.970290000e-01
 4.258140000e+00  4.600131400e+01 -2.554608000e+01  1.476740000e+00  5.803140000e-01 -1.756080000e+00  2.366715516e+00  2.062260000e-01
 4.410030000e+00  4.737707500e+01 -2.276573000e+01  1.569230000e+00  5.980750000e-01 -1.760730000e+00  2.433176243e+00  2.141160000e-01
 4.555940000e+00  4.856389300e+01 -1.989444000e+01  1.659640000e+00  5.948930000e-01 -1.749440000e+00  2.483715548e+00  2.202300000e-01
 4.693730000e+00  4.955476100e+01 -1.694273000e+01  1.746830000e+00  5.667610000e-01 -1.723730000e+00  2.518705658e+00  2.240810000e-01
 4.821890000e+00  5.034234100e+01 -1.392514000e+01  1.829490000e+00  5.103410000e-01 -1.686140000e+00  2.539793239e+00  2.252300000e-01
 4.938910000e+00  5.092150800e+01 -1.085698000e+01  1.906510000e+00  4.235080000e-01 -1.640180000e+00  2.550358767e+00  2.233200000e-01
 5.042780000e+00  5.129387600e+01 -7.752610000e+00  1.976280000e+00  3.058760000e-01 -1.590010000e+00  2.554872710e+00  2.182390000e-01
 5.131840000e+00  5.147915600e+01 -4.626390000e+00  2.037040000e+00  1.591560000e-01 -1.539290000e+00  2.558178316e+00  2.097220000e-01
 6.267530000e+00  3.854545300e+01 -3.519945000e+01  1.129930000e+00  3.644530000e-01 -1.516450000e+00  1.925925335e+00  1.596430000e-01
 6.439070000e+00  4.054563400e+01 -3.291045000e+01  1.222870000e+00  4.246340000e-01 -1.582450000e+00  2.044473789e+00  1.701100000e-01
 6.642000000e+00  4.240066200e+01 -3.048723000e+01  1.317100000e+00  4.806620000e-01 -1.634230000e+00  2.153252438e+00  1.804890000e-01
 6.858010000e+00  4.410194200e+01 -2.794121000e+01  1.411910000e+00  5.299420000e-01 -1.671210000e+00  2.251060025e+00  1.905570000e-01
 7.075220000e+00  4.564359300e+01 -2.528295000e+01  1.506420000e+00  5.695930000e-01 -1.692950000e+00  2.336625153e+00  2.000300000e-01
 7.286140000e+00  4.701349500e+01 -2.252332000e+01  1.599540000e+00  5.964950000e-01 -1.699320000e+00  2.408738873e+00  2.085740000e-01
 7.486270000e+00  4.820645100e+01 -1.967468000e+01  1.690070000e+00  6.074510000e-01 -1.690680000e+00  2.466522285e+00  2.158180000e-01
 7.672530000e+00  4.921244500e+01 -1.674903000e+01  1.776630000e+00  5.994450000e-01 -1.668030000e+00  2.509596092e+00  2.213750000e-01
 7.842660000e+00  5.002696600e+01 -1.375812000e+01  1.857860000e+00  5.699660000e-01 -1.633120000e+00  2.538421942e+00  2.248820000e-01
 7.994520000e+00  5.064546100e+01 -1.071772000e+01  1.932220000e+00  5.174610000e-01 -1.588420000e+00  2.554274478e+00  2.260440000e-01
 8.126260000e+00  5.107056700e+01 -7.640440000e+00  1.998460000e+00  4.415670000e-01 -1.536940000e+00  2.559493768e+00  2.245710000e-01
 8.234200000e+00  5.133144000e+01 -4.538320000e+00  2.053100000e+00  3.434400000e-01 -1.480620000e+00  2.554487469e+00  2.194970000e-01
 8.853550000e+00  3.820127800e+01 -3.483809000e+01  1.148950000e+00  3.442780000e-01 -1.456090000e+00  1.886481257e+00  1.533300000e-01
 9.066470000e+00  4.016653400e+01 -3.256854000e+01  1.242570000e+00  4.025340000e-01 -1.518540000e+00  2.002992151e+00  1.633560000e-01
 9.323440000e+00  4.198775700e+01 -3.016144000e+01  1.337340000e+00  4.577570000e-01 -1.567440000e+00  2.110660536e+00  1.733490000e-01
 9.599050000e+00  4.366094400e+01 -2.763352000e+01  1.432550000e+00  5.079440000e-01 -1.602520000e+00  2.208682177e+00  1.831580000e-01
 9.876070000e+00  4.517893000e+01 -2.499450000e+01  1.527270000e+00  5.509300000e-01 -1.623500000e+00  2.296046552e+00  1.925750000e-01
 1.014421000e+01  4.653437400e+01 -2.225724000e+01  1.620410000e+00  5.843740000e-01 -1.630240000e+00  2.371688006e+00  2.013460000e-01
 1.039698000e+01  4.772089300e+01 -1.943292000e+01  1.710680000e+00  6.058930000e-01 -1.622920000e+00  2.434625580e+00  2.091860000e-01
 1.063012000e+01  4.873121900e+01 -1.653320000e+01  1.796720000e+00  6.132190000e-01 -1.602200000e+00  2.484207145e+00  2.157910000e-01
 1.084091000e+01  4.955948300e+01 -1.357222000e+01  1.877010000e+00  6.044830000e-01 -1.569220000e+00  2.520122546e+00  2.208740000e-01
 1.102700000e+01  5.020248100e+01 -1.056108000e+01  1.950200000e+00  5.784810000e-01 -1.525780000e+00  2.542818302e+00  2.241510000e-01
 1.118565000e+01  5.066485400e+01 -7.514160000e+00  2.014550000e+00  5.348540000e-01 -1.473860000e+00  2.552791375e+00  2.252070000e-01
 1.131460000e+01  5.097435900e+01 -4.441870000e+00  2.067600000e+00  4.743590000e-01 -1.415670000e+00  2.550315229e+00  2.233940000e-01
 1.141608000e+01  3.776854900e+01 -3.442478000e+01  1.162080000e+00  3.215490000e-01 -1.393780000e+00  1.842945027e+00  1.468890000e-01
 1.167059000e+01  3.969130400e+01 -3.217715000e+01  1.255590000e+00  3.773040000e-01 -1.452150000e+00  1.956426380e+00  1.563790000e-01
 1.198102000e+01  4.146985900e+01 -2.979052000e+01  1.350020000e+00  4.308590000e-01 -1.497520000e+00  2.061737042e+00  1.658630000e-01
 1.231371000e+01  4.310168200e+01 -2.728192000e+01  1.444710000e+00  4.806820000e-01 -1.529920000e+00  2.158447909e+00  1.752430000e-01
 1.264879000e+01  4.458617700e+01 -2.466526000e+01  1.538790000e+00  5.251770000e-01 -1.549260000e+00  2.245861103e+00  1.843740000e-01
 1.297220000e+01  4.591463800e+01 -2.195246000e+01  1.631200000e+00  5.626380000e-01 -1.555460000e+00  2.323107998e+00  1.930720000e-01
 1.327473000e+01  4.708230300e+01 -1.915563000e+01  1.720730000e+00  5.913030000e-01 -1.548630000e+00  2.389310747e+00  2.011180000e-01
 1.355302000e+01  4.808451300e+01 -1.628714000e+01  1.806020000e+00  6.095130000e-01 -1.529140000e+00  2.443661899e+00  2.082760000e-01
 1.380267000e+01  4.891384300e+01 -1.335981000e+01  1.885670000e+00  6.158430000e-01 -1.497810000e+00  2.485648556e+00  2.143120000e-01
 1.402222000e+01  4.957037900e+01 -1.038379000e+01  1.958220000e+00  6.093790000e-01 -1.455790000e+00  2.515013491e+00  2.189430000e-01
 1.420625000e+01  5.005470300e+01 -7.373060000e+00  2.022250000e+00  5.897030000e-01 -1.404760000e+00  2.531915352e+00  2.218730000e-01
 1.435677000e+01  5.039630700e+01 -4.336690000e+00  2.075770000e+00  5.573070000e-01 -1.346290000e+00  2.536120847e+00  2.226690000e-01
 1.394850000e+01  3.724898300e+01 -3.395029000e+01  1.169500000e+00  2.969830000e-01 -1.330290000e+00  1.795995723e+00  1.404390000e-01
 1.424403000e+01  3.911773100e+01 -3.172916000e+01  1.262030000e+00  3.497310000e-01 -1.384160000e+00  1.905500039e+00  1.493280000e-01
 1.460517000e+01  4.084085800e+01 -2.936550000e+01  1.355170000e+00  4.008580000e-01 -1.425500000e+00  2.007292484e+00  1.582100000e-01
 1.499338000e+01  4.242219300e+01 -2.687964000e+01  1.448380000e+00  4.491930000e-01 -1.454640000e+00  2.101322561e+00  1.670350000e-01
 1.538288000e+01  4.385959000e+01 -2.428870000e+01  1.540880000e+00  4.935900000e-01 -1.471700000e+00  2.187199843e+00  1.757080000e-01
 1.575872000e+01  4.514982700e+01 -2.160571000e+01  1.631720000e+00  5.328270000e-01 -1.476710000e+00  2.264307222e+00  1.840990000e-01
 1.610876000e+01  4.628765000e+01 -1.884174000e+01  1.719760000e+00  5.656500000e-01 -1.469740000e+00  2.331881225e+00  1.920470000e-01
 1.642978000e+01  4.726783300e+01 -1.600904000e+01  1.803780000e+00  5.908330000e-01 -1.451040000e+00  2.389188775e+00  1.993690000e-01
 1.671546000e+01  4.808732400e+01 -1.312011000e+01  1.882460000e+00  6.073240000e-01 -1.421110000e+00  2.435580367e+00  2.058680000e-01
 1.696550000e+01  4.874337400e+01 -1.018525000e+01  1.954500000e+00  6.143740000e-01 -1.380850000e+00  2.470682575e+00  2.113230000e-01
 1.717461000e+01  4.923858400e+01 -7.216870000e+00  2.018610000e+00  6.115840000e-01 -1.331370000e+00  2.494266906e+00  2.155170000e-01
 1.734437000e+01  4.959917500e+01 -4.223290000e+00  2.073370000e+00  5.991750000e-01 -1.274190000e+00  2.506278914e+00  2.181210000e-01
 1.644343000e+01  3.664602900e+01 -3.341320000e+01  1.171430000e+00  2.710290000e-01 -1.266200000e+00  1.746129263e+00  1.340780000e-01
 1.677811000e+01  3.844937600e+01 -3.122128000e+01  1.262110000e+00  3.203760000e-01 -1.315280000e+00  1.850817093e+00  1.423250000e-01
 1.718702000e+01  4.010546200e+01 -2.888425000e+01  1.353020000e+00  3.684620000e-01 -1.352250000e+00  1.948077880e+00  1.505490000e-01
 1.762778000e+01  4.162239400e+01 -2.642674000e+01  1.443780000e+00  4.143940000e-01 -1.377740000e+00  2.038232220e+00  1.587340000e-01
 1.806873000e+01  4.300136300e+01 -2.386610000e+01  1.533730000e+00  4.573630000e-01 -1.392100000e+00  2.121190948e+00  1.668280000e-01
 1.849303000e+01  4.424053600e+01 -2.121646000e+01  1.622030000e+00  4.965360000e-01 -1.395460000e+00  2.196551372e+00  1.747450000e-01
 1.888771000e+01  4.533702600e+01 -1.848992000e+01  1.707710000e+00  5.310260000e-01 -1.387920000e+00  2.263754400e+00  1.823680000e-01
 1.924668000e+01  4.628496300e+01 -1.569866000e+01  1.789680000e+00  5.599630000e-01 -1.369660000e+00  2.322171738e+00  1.895580000e-01
 1.956677000e+01  4.708354400e+01 -1.285303000e+01  1.866770000e+00  5.825440000e-01 -1.341030000e+00  2.371191516e+00  1.961630000e-01
 1.984382000e+01  4.772819400e+01 -9.965940000e+00  1.937820000e+00  5.981940000e-01 -1.302640000e+00  2.410363745e+00  2.020080000e-01
 2.007574000e+01  4.822350100e+01 -7.046480000e+00  2.001740000e+00  6.065010000e-01 -1.255380000e+00  2.439423177e+00  2.069240000e-01
 2.026355000e+01  4.859250700e+01 -4.102360000e+00  2.057550000e+00  6.075070000e-01 -1.200460000e+00  2.458389914e+00  2.106800000e-01
 1.889315000e+01  3.596203800e+01 -3.281106000e+01  1.168150000e+00  2.440380000e-01 -1.202060000e+00  1.693835060e+00  1.278630000e-01
 1.926512000e+01  3.768771200e+01 -3.065316000e+01  1.256120000e+00  2.897120000e-01 -1.246160000e+00  1.792954334e+00  1.354470000e-01
 1.971991000e+01  3.926531500e+01 -2.834756000e+01  1.343910000e+00  3.343150000e-01 -1.278560000e+00  1.884827918e+00  1.429820000e-01
 2.020828000e+01  4.070615400e+01 -2.592118000e+01  1.431280000e+00  3.771540000e-01 -1.300180000e+00  1.970095330e+00  1.504770000e-01
 2.069771000e+01  4.201569000e+01 -2.339457000e+01  1.517710000e+00  4.176900000e-01 -1.311570000e+00  2.048932514e+00  1.579160000e-01
 2.116553000e+01  4.319236500e+01 -2.078400000e+01  1.602530000e+00  4.553650000e-01 -1.313000000e+00  2.121185679e+00  1.652470000e-01
 2.159990000e+01  4.423558600e+01 -1.810061000e+01  1.684900000e+00  4.895860000e-01 -1.304610000e+00  2.186455971e+00  1.723880000e-01
 2.199391000e+01  4.514173300e+01 -1.535657000e+01  1.763910000e+00  5.197330000e-01 -1.286570000e+00  2.244273433e+00  1.792380000e-01
 2.234455000e+01  4.590822400e+01 -1.256113000e+01  1.838550000e+00  5.452240000e-01 -1.259130000e+00  2.294110649e+00  1.856830000e-01
 2.264585000e+01  4.653259400e+01 -9.727150000e+00  1.907850000e+00  5.655940000e-01 -1.222750000e+00  2.335573968e+00  1.915830000e-01
 2.289786000e+01  4.701847200e+01 -6.862780000e+00  1.970860000e+00  5.804720000e-01 -1.178080000e+00  2.368355837e+00  1.968140000e-01
 2.310199000e+01  4.738575300e+01 -3.974870000e+00  2.026990000e+00  5.897530000e-01 -1.126170000e+00  2.392646219e+00  2.012110000e-01
 2.129191000e+01  3.520130300e+01 -3.214729000e+01  1.159910000e+00  2.163030000e-01 -1.138290000e+00  1.639476233e+00  1.218350000e-01
 2.169838000e+01  3.683813700e+01 -3.002732000e+01  1.244380000e+00  2.581370000e-01 -1.177320000e+00  1.732396801e+00  1.287510000e-01
 2.219520000e+01  3.832496600e+01 -2.775606000e+01  1.328200000e+00  2.989660000e-01 -1.205060000e+00  1.818148925e+00  1.355840000e-01
 2.272830000e+01  3.967925300e+01 -2.536573000e+01  1.411300000e+00  3.382530000e-01 -1.222730000e+00  1.897696350e+00  1.423680000e-01
 2.325833000e+01  4.090664200e+01 -2.287904000e+01  1.493330000e+00  3.756420000e-01 -1.231040000e+00  1.971446394e+00  1.491130000e-01
 2.376574000e+01  4.201179400e+01 -2.031140000e+01  1.573740000e+00  4.107940000e-01 -1.230400000e+00  2.039434593e+00  1.557920000e-01
 2.423589000e+01  4.299131900e+01 -1.767702000e+01  1.651890000e+00  4.433190000e-01 -1.221020000e+00  2.101466666e+00  1.623550000e-01
 2.466202000e+01  4.384580300e+01 -1.498407000e+01  1.727020000e+00  4.728030000e-01 -1.203070000e+00  2.157201470e+00  1.687280000e-01
 2.503730000e+01  4.457081800e+01 -1.224577000e+01  1.798300000e+00  4.988180000e-01 -1.176770000e+00  2.206238863e+00  1.748280000e-01
 2.536192000e+01  4.516601400e+01 -9.470550000e+00  1.864920000e+00  5.210140000e-01 -1.142450000e+00  2.248238021e+00  1.805490000e-01
 2.563111000e+01  4.563305800e+01 -6.667330000e+00  1.926110000e+00  5.390580000e-01 -1.100630000e+00  2.282951961e+00  1.857950000e-01
 2.584856000e+01  4.599174500e+01 -3.841870000e+00  1.981560000e+00  5.527450000e-01 -1.052170000e+00  2.310664142e+00  1.904590000e-01
 2.362897000e+01  3.436908600e+01 -3.142631000e+01  1.146970000e+00  1.880860000e-01 -1.075310000e+00  1.583416597e+00  1.160290000e-01
 2.406813000e+01  3.590396900e+01 -2.935022000e+01  1.227130000e+00  2.259690000e-01 -1.109220000e+00  1.669514610e+00  1.222710000e-01
 2.460417000e+01  3.728885100e+01 -2.711829000e+01  1.306170000e+00  2.628510000e-01 -1.132290000e+00  1.748499746e+00  1.283980000e-01
 2.517621000e+01  3.854329900e+01 -2.476801000e+01  1.384210000e+00  2.982990000e-01 -1.146010000e+00  1.821636225e+00  1.344670000e-01
 2.574403000e+01  3.968009900e+01 -2.232425000e+01  1.461030000e+00  3.320990000e-01 -1.151250000e+00  1.889517126e+00  1.405050000e-01
 2.628624000e+01  4.070205200e+01 -1.980552000e+01  1.536240000e+00  3.640520000e-01 -1.148520000e+00  1.952348685e+00  1.465070000e-01
 2.678735000e+01  4.160992800e+01 -1.722311000e+01  1.609350000e+00  3.939280000e-01 -1.138110000e+00  2.010094790e+00  1.524410000e-01
 2.723875000e+01  4.240345300e+01 -1.458821000e+01  1.679750000e+00  4.214530000e-01 -1.120210000e+00  2.062535609e+00  1.582580000e-01
 2.763780000e+01  4.307833300e+01 -1.191101000e+01  1.746800000e+00  4.463330000e-01 -1.095010000e+00  2.109400457e+00  1.639000000e-01
 2.797983000e+01  4.363630200e+01 -9.200090000e+00  1.809830000e+00  4.683020000e-01 -1.062790000e+00  2.150421814e+00  1.692870000e-01
 2.826324000e+01  4.407808600e+01 -6.463130000e+00  1.868240000e+00  4.870860000e-01 -1.023930000e+00  2.185407540e+00  1.743510000e-01
 2.849393000e+01  4.442140000e+01 -3.705153000e+00  1.921930000e+00  5.024000000e-01 -9.791530000e-01  2.214714718e+00  1.790190000e-01
 2.587834000e+01  3.346962900e+01 -3.066765000e+01  1.129340000e+00  1.596290000e-01 -1.013650000e+00  1.525901889e+00  1.104760000e-01
 2.635214000e+01  3.488335100e+01 -2.864626000e+01  1.204140000e+00  1.933510000e-01 -1.042260000e+00  1.604257977e+00  1.160140000e-01
 2.692654000e+01  3.615110400e+01 -2.646068000e+01  1.277540000e+00  2.261040000e-01 -1.060680000e+00  1.675790420e+00  1.214210000e-01
 2.753679000e+01  3.729754200e+01 -2.415654000e+01  1.349790000e+00  2.575420000e-01 -1.070540000e+00  1.741929051e+00  1.267750000e-01
 2.814077000e+01  3.833450800e+01 -2.175984000e+01  1.420770000e+00  2.875080000e-01 -1.072840000e+00  1.803395106e+00  1.321140000e-01
 2.871317000e+01  3.926789800e+01 -1.929214000e+01  1.490170000e+00  3.158980000e-01 -1.068140000e+00  1.860462640e+00  1.374390000e-01
 2.924162000e+01  4.009657700e+01 -1.676476000e+01  1.557620000e+00  3.425770000e-01 -1.056760000e+00  1.913186024e+00  1.427350000e-01
 2.971765000e+01  4.082137500e+01 -1.418993000e+01  1.622650000e+00  3.673750000e-01 -1.038930000e+00  1.961461944e+00  1.479690000e-01
 3.013577000e+01  4.144108900e+01 -1.157582000e+01  1.684770000e+00  3.900890000e-01 -1.014820000e+00  2.005113217e+00  1.531000000e-01
 3.049346000e+01  4.195553100e+01 -8.930160000e+00  1.743460000e+00  4.105310000e-01 -9.846600000e-01  2.043952981e+00  1.580720000e-01
 3.078925000e+01  4.236447600e+01 -6.260758000e+00  1.798250000e+00  4.284760000e-01 -9.487580000e-01  2.077844192e+00  1.628370000e-01
 3.102922000e+01  4.268558600e+01 -3.570986000e+00  1.849220000e+00  4.435860000e-01 -9.076860000e-01  2.107196484e+00  1.673430000e-01
 2.797634000e+01  3.250024800e+01 -2.993419200e+01  1.106340000e+00  1.312480000e-01 -9.541920000e-01  1.466866254e+00  1.052120000e-01
 2.849594000e+01  3.375621700e+01 -2.799390200e+01  1.173940000e+00  1.602170000e-01 -9.769020000e-01  1.535624345e+00  1.099440000e-01
 2.911963000e+01  3.488856300e+01 -2.586753700e+01  1.240630000e+00  1.885630000e-01 -9.905370000e-01  1.598712717e+00  1.145830000e-01
 2.977354000e+01  3.591785800e+01 -2.361074000e+01  1.306540000e+00  2.158580000e-01 -9.967400000e-01  1.657447458e+00  1.192260000e-01
 3.041734000e+01  3.685292700e+01 -2.126038400e+01  1.371340000e+00  2.419270000e-01 -9.963840000e-01  1.712274261e+00  1.238900000e-01
 3.102370000e+01  3.769466200e+01 -1.883897300e+01  1.434700000e+00  2.666620000e-01 -9.899730000e-01  1.763382900e+00  1.285720000e-01
 3.158127000e+01  3.844296800e+01 -1.636181900e+01  1.496270000e+00  2.899680000e-01 -9.778190000e-01  1.810810689e+00  1.332580000e-01
 3.208067000e+01  3.909873100e+01 -1.383913700e+01  1.555670000e+00  3.117310000e-01 -9.601370000e-01  1.854494115e+00  1.379260000e-01
 3.251753000e+01  3.965981300e+01 -1.128010100e+01  1.612530000e+00  3.318130000e-01 -9.371010000e-01  1.894336599e+00  1.425490000e-01
 3.288945000e+01  4.012608000e+01 -8.692404000e+00  1.666450000e+00  3.500800000e-01 -9.089040000e-01  1.930211929e+00  1.470850000e-01
 3.319610000e+01  4.049935300e+01 -6.081481000e+00  1.717100000e+00  3.663530000e-01 -8.757810000e-01  1.962049768e+00  1.515030000e-01
 3.344368000e+01  4.079320400e+01 -3.449287000e+00  1.764680000e+00  3.802040000e-01 -8.381870000e-01  1.990278380e+00  1.557570000e-01
 2.980451000e+01  3.144950700e+01 -2.935630000e+01  1.076510000e+00  1.035070000e-01 -8.983000000e-01  1.405891308e+00  1.002810000e-01
 3.041292000e+01  3.248175700e+01 -2.752641700e+01  1.133920000e+00  1.267570000e-01 -9.134170000e-01  1.461565092e+00  1.040100000e-01
 3.111482000e+01  3.345530900e+01 -2.546095000e+01  1.192820000e+00  1.503090000e-01 -9.219500000e-01  1.515059124e+00  1.078430000e-01
 3.183514000e+01  3.436445500e+01 -2.324275200e+01  1.252140000e+00  1.734550000e-01 -9.247520000e-01  1.566239917e+00  1.118020000e-01
 3.253091000e+01  3.520075100e+01 -2.092315500e+01  1.310910000e+00  1.957510000e-01 -9.221550000e-01  1.614674372e+00  1.158470000e-01
 3.318148000e+01  3.595798400e+01 -1.853141600e+01  1.368480000e+00  2.169840000e-01 -9.144160000e-01  1.660113306e+00  1.199480000e-01
 3.377442000e+01  3.663303600e+01 -1.608574800e+01  1.424420000e+00  2.370360000e-01 -9.017480000e-01  1.702441734e+00  1.240810000e-01
 3.430339000e+01  3.722281100e+01 -1.359633500e+01  1.478390000e+00  2.558110000e-01 -8.843350000e-01  1.741586820e+00  1.282300000e-01
 3.476310000e+01  3.772820500e+01 -1.107133700e+01  1.530100000e+00  2.732050000e-01 -8.623370000e-01  1.777490389e+00  1.323740000e-01
 3.515125000e+01  3.814811600e+01 -8.519719000e+00  1.579250000e+00  2.891160000e-01 -8.359190000e-01  1.810077125e+00  1.364860000e-01
 3.546963000e+01  3.848335500e+01 -5.944777000e+00  1.625630000e+00  3.033550000e-01 -8.052770000e-01  1.839339066e+00  1.405400000e-01
 3.572854000e+01  3.875036700e+01 -3.348605000e+00  1.669540000e+00  3.153670000e-01 -7.708050000e-01  1.865733235e+00  1.444980000e-01
 3.984235000e+01  3.421265700e+01 -3.192602000e+00  1.451350000e+00  1.916570000e-01 -6.413020000e-01  1.598254511e+00  1.235200000e-01
 4.169617000e+01  3.177004900e+01 -3.169849000e+00  1.331170000e+00  1.340490000e-01 -5.797490000e-01  1.458112344e+00  1.139600000e-01
 4.339986000e+01  2.921802610e+01 -3.165979000e+00  1.204860000e+00  8.102610000e-02 -5.197790000e-01  1.314695043e+00  1.052380000e-01
 4.494922000e+01  2.656557740e+01 -3.169615000e+00  1.073220000e+00  3.357740000e-02 -4.611150000e-01  1.168569918e+00  9.760270000e-02
 4.633710700e+01  2.382362900e+01 -3.174525000e+00  9.371070000e-01 -7.371000000e-03 -4.036250000e-01  1.020361211e+00  9.143590000e-02
 4.755963400e+01  2.100219850e+01 -3.177870000e+00  7.976340000e-01 -4.080150000e-02 -3.472700000e-01  8.709082691e-01  8.728890000e-02
 4.861346200e+01  1.811344230e+01 -3.178202000e+00  6.564620000e-01 -6.555770000e-02 -2.921020000e-01  7.215010380e-01  8.585820000e-02
 4.949504400e+01  1.516861340e+01 -3.174935000e+00  5.160440000e-01 -8.038660000e-02 -2.382350000e-01  5.740377432e-01  8.783020000e-02
 5.020605100e+01  1.218108350e+01 -3.168044000e+00  3.800510000e-01 -8.391650000e-02 -1.859440000e-01  4.313419904e-01  9.373480000e-02
 5.074817400e+01  9.162102200e+00 -3.157532000e+00  2.531740000e-01 -7.489780000e-02 -1.354320000e-01  2.967298120e-01  1.031520000e-01
 5.112967700e+01  6.124671000e+00 -3.144497900e+00  1.426770000e-01 -5.232900000e-02 -8.749790000e-02  1.753594397e-01  1.179410000e-01
 5.136928000e+01  3.079233100e+00 -3.129961800e+00  4.928000000e-02 -1.556690000e-02 -4.166180000e-02  6.638186767e-02  1.138380000e-01
 3.952500000e+01  3.397126400e+01 -5.774740000e+00  1.414000000e+00  1.852640000e-01 -6.697400000e-01  1.575522268e+00  1.201100000e-01
 4.135715000e+01  3.154685800e+01 -5.791623000e+00  1.297150000e+00  1.298580000e-01 -6.056230000e-01  1.437442326e+00  1.107160000e-01
 4.304218000e+01  2.901276340e+01 -5.841226000e+00  1.174180000e+00  7.876340000e-02 -5.430260000e-01  1.296063109e+00  1.021020000e-01
 4.457592000e+01  2.637793680e+01 -5.903461000e+00  1.045920000e+00  3.293680000e-02 -4.815610000e-01  1.151926419e+00  9.453300000e-02
 4.595220900e+01  2.365327130e+01 -5.966953000e+00  9.132090000e-01 -6.728700000e-03 -4.210530000e-01  1.005624971e+00  8.840730000e-02
 4.716713200e+01  2.084975670e+01 -6.025680000e+00  7.771320000e-01 -3.924330000e-02 -3.614800000e-01  8.579871633e-01  8.430640000e-02
 4.821831100e+01  1.797953810e+01 -6.076949000e+00  6.393110000e-01 -6.346190000e-02 -3.029490000e-01  7.102985739e-01  8.296500000e-02
 4.910116000e+01  1.505388140e+01 -6.119322000e+00  5.021600000e-01 -7.811860000e-02 -2.457220000e-01  5.644878055e-01  8.510740000e-02
 4.981732500e+01  1.208720630e+01 -6.152611000e+00  3.693250000e-01 -8.179370000e-02 -1.902110000e-01  4.234045223e-01  9.127690000e-02
 5.036941800e+01  9.090735600e+00 -6.177215000e+00  2.454180000e-01 -7.316440000e-02 -1.370150000e-01  2.904412753e-01  1.010490000e-01
 5.076577400e+01  6.076837600e+00 -6.194448400e+00  1.377740000e-01 -5.126240000e-02 -8.704840000e-02  1.708418353e-01  1.162520000e-01
 5.103585460e+01  3.055667800e+00 -6.207540000e+00  4.685460000e-02 -1.523220000e-02 -4.024000000e-02  6.361313589e-02  1.122720000e-01
 3.915009000e+01  3.368138800e+01 -8.345910000e+00  1.375090000e+00  1.763880000e-01 -6.956100000e-01  1.551083011e+00  1.166670000e-01
 4.095486000e+01  3.128109600e+01 -8.405144000e+00  1.261860000e+00  1.230960000e-01 -6.293440000e-01  1.415456518e+00  1.074730000e-01
 4.261240000e+01  2.876795560e+01 -8.508423000e+00  1.142400000e+00  7.395560000e-02 -5.644230000e-01  1.276370054e+00  9.901730000e-02
 4.412066000e+01  2.615283040e+01 -8.628711000e+00  1.017660000e+00  2.983040000e-02 -5.004110000e-01  1.134430649e+00  9.157300000e-02
 4.547650300e+01  2.344956671e+01 -8.749917000e+00  8.885030000e-01 -8.433290000e-03 -4.371170000e-01  9.902423810e-01  8.556120000e-02
 4.667599000e+01  2.066713130e+01 -8.863137000e+00  7.559900000e-01 -3.986870000e-02 -3.745370000e-01  8.446232046e-01  8.159740000e-02
 4.771471700e+01  1.781866550e+01 -8.964057000e+00  6.217170000e-01 -6.333450000e-02 -3.128570000e-01  6.988725130e-01  8.045620000e-02
 4.859107100e+01  1.491744740e+01 -9.050643000e+00  4.880710000e-01 -7.755260000e-02 -2.524430000e-01  5.549370911e-01  8.289200000e-02
 4.930563900e+01  1.197594420e+01 -9.122541000e+00  3.586390000e-01 -8.105580000e-02 -1.939410000e-01  4.156983119e-01  8.945000000e-02
 4.986000000e+01  9.005907600e+00 -9.180052000e+00  2.380000000e-01 -7.249240000e-02 -1.381520000e-01  2.845788523e-01  9.967430000e-02
 5.026529700e+01  6.020237400e+00 -9.225716600e+00  1.332970000e-01 -5.076260000e-02 -8.641660000e-02  1.667715819e-01  1.153240000e-01
 5.054795100e+01  3.027653900e+00 -9.264354200e+00  4.495100000e-02 -1.504610000e-02 -3.875420000e-02  6.122798007e-02  1.112370000e-01
 3.869619000e+01  3.332888200e+01 -1.089847500e+01  1.334190000e+00  1.658820000e-01 -7.184750000e-01  1.524396969e+00  1.132370000e-01
 4.046578000e+01  3.095676700e+01 -1.100146200e+01  1.224780000e+00  1.147670000e-01 -6.504620000e-01  1.391530929e+00  1.042820000e-01
 4.208699000e+01  2.846868270e+01 -1.115754500e+01  1.108990000e+00  6.768270000e-02 -5.835450000e-01  1.254975910e+00  9.602800000e-02
 4.355990600e+01  2.587838660e+01 -1.133527800e+01  9.879060000e-01  2.538660000e-02 -5.172780000e-01  1.115427843e+00  8.875940000e-02
 4.488444300e+01  2.319967530e+01 -1.151247000e+01  8.624430000e-01 -1.132470000e-02 -4.514700000e-01  9.735303477e-01  8.292190000e-02
 4.605668000e+01  2.044349320e+01 -1.167915300e+01  7.336800000e-01 -4.150680000e-02 -3.861530000e-01  8.301345049e-01  7.916420000e-02
 4.707519100e+01  1.762297200e+01 -1.182857900e+01  6.031910000e-01 -6.402800000e-02 -3.215790000e-01  6.865508142e-01  7.829360000e-02
 4.793732300e+01  1.475140250e+01 -1.195725200e+01  4.733230000e-01 -7.759750000e-02 -2.582520000e-01  5.447477672e-01  8.108120000e-02
 4.864260600e+01  1.184026260e+01 -1.206599500e+01  3.476060000e-01 -8.073740000e-02 -1.969950000e-01  4.076217475e-01  8.805750000e-02
 4.919350500e+01  8.903469300e+00 -1.215487400e+01  2.305050000e-01 -7.203070000e-02 -1.388740000e-01  2.785802661e-01  9.871420000e-02
 4.959999200e+01  5.951850900e+00 -1.222661190e+01  1.289920000e-01 -5.034910000e-02 -8.561190000e-02  1.627985422e-01  1.147440000e-01
 4.988725190e+01  2.993727500e+00 -1.228919000e+01  4.325190000e-02 -1.487250000e-02 -3.719000000e-02  5.894925114e-02  1.104600000e-01
 3.816136000e+01  3.290804500e+01 -1.342711600e+01  1.291360000e+00  1.540450000e-01 -7.381160000e-01  1.495378126e+00  1.098440000e-01
 3.988589000e+01  3.057122600e+01 -1.357274100e+01  1.185890000e+00  1.052260000e-01 -6.687410000e-01  1.365511673e+00  1.011690000e-01
 4.145785000e+01  2.811132180e+01 -1.378115300e+01  1.073850000e+00  6.032180000e-02 -6.001530000e-01  1.231655863e+00  9.315740000e-02
 4.288452000e+01  2.554999230e+01 -1.401392800e+01  9.565200000e-01  1.999230000e-02 -5.319280000e-01  1.094658668e+00  8.611280000e-02
 4.416588800e+01  2.290098740e+01 -1.424589700e+01  8.348880000e-01 -1.501260000e-02 -4.638970000e-01  9.552296987e-01  8.050660000e-02
 4.530305600e+01  2.017622860e+01 -1.446413000e+01  7.100560000e-01 -4.377140000e-02 -3.961300000e-01  8.142569837e-01  7.701740000e-02
 4.629058300e+01  1.738983520e+01 -1.465896300e+01  5.835830000e-01 -6.516480000e-02 -3.289630000e-01  6.730766854e-01  7.647510000e-02
 4.712977500e+01  1.455309090e+01 -1.482901700e+01  4.577750000e-01 -7.790910000e-02 -2.630170000e-01  5.336719224e-01  7.965040000e-02
 4.781907400e+01  1.167948660e+01 -1.497231200e+01  3.360740000e-01 -8.051340000e-02 -1.993120000e-01  3.989403645e-01  8.704240000e-02
 4.836081300e+01  8.782148600e+00 -1.509014700e+01  2.228130000e-01 -7.155140000e-02 -1.391470000e-01  2.722629674e-01  9.808570000e-02
 4.876369900e+01  5.870947500e+00 -1.518659620e+01  1.246990000e-01 -4.985250000e-02 -8.459620000e-02  1.587187116e-01  1.144060000e-01
 4.905068850e+01  2.953436900e+00 -1.527057310e+01  4.168850000e-02 -1.466310000e-02 -3.557310000e-02  5.673079391e-02  1.098580000e-01
 3.754472000e+01  3.242099400e+01 -1.592437300e+01  1.246720000e+00  1.409940000e-01 -7.543730000e-01  1.463990673e+00  1.065100000e-01
 3.921225000e+01  3.012160780e+01 -1.611100700e+01  1.145250000e+00  9.460780000e-02 -6.840070000e-01  1.337315884e+00  9.815040000e-02
 4.072504000e+01  2.769601430e+01 -1.637006900e+01  1.037040000e+00  5.201430000e-02 -6.140690000e-01  1.206332535e+00  9.042290000e-02
 4.209353700e+01  2.516678810e+01 -1.665618300e+01  9.235370000e-01  1.378810000e-02 -5.441830000e-01  1.072028843e+00  8.365150000e-02
 4.332285300e+01  2.255264090e+01 -1.694022200e+01  8.058530000e-01 -1.935910000e-02 -4.742220000e-01  9.352327719e-01  7.833520000e-02
 4.441212000e+01  1.986547110e+01 -1.720631100e+01  6.851200000e-01 -4.652890000e-02 -4.043110000e-01  7.968825118e-01  7.517740000e-02
 4.536189000e+01  1.711837760e+01 -1.744486600e+01  5.628900000e-01 -6.662240000e-02 -3.348660000e-01  6.583456039e-01  7.501720000e-02
 4.616941400e+01  1.432363100e+01 -1.765363600e+01  4.414140000e-01 -7.836900000e-02 -2.666360000e-01  5.216155443e-01  7.860660000e-02
 4.683502800e+01  1.149370590e+01 -1.782981900e+01  3.240280000e-01 -8.029410000e-02 -2.008190000e-01  3.895761261e-01  8.639880000e-02
 4.736188700e+01  8.642129200e+00 -1.797492800e+01  2.148870000e-01 -7.097080000e-02 -1.389280000e-01  2.655452248e-01  9.776870000e-02
 4.775638300e+01  5.777472500e+00 -1.809435820e+01  1.203830000e-01 -4.922750000e-02 -8.335820000e-02  1.544797817e-01  1.142680000e-01
 4.803922110e+01  2.906699400e+00 -1.819790630e+01  4.022110000e-02 -1.440060000e-02 -3.390630000e-02  5.454128111e-02  1.093940000e-01
 3.684846000e+01  3.186680700e+01 -1.838310800e+01  1.200460000e+00  1.268070000e-01 -7.671080000e-01  1.430258337e+00  1.032490000e-01
 3.844803000e+01  2.960998950e+01 -1.861011800e+01  1.103030000e+00  8.298950000e-02 -6.961180000e-01  1.306959337e+00  9.524220000e-02
 3.988966100e+01  2.722183320e+01 -1.891714100e+01  9.986610000e-01  4.283320000e-02 -6.251410000e-01  1.178965541e+00  8.784180000e-02
 4.118905500e+01  2.473084364e+01 -1.925188800e+01  8.890550000e-01  6.843640000e-03 -5.538880000e-01  1.047500618e+00  8.139690000e-02
 4.235542400e+01  2.215570060e+01 -1.958529500e+01  7.754240000e-01 -2.429940000e-02 -4.822950000e-01  9.134994842e-01  7.643270000e-02
 4.338895000e+01  1.951127900e+01 -1.989655300e+01  6.589500000e-01 -4.972100000e-02 -4.105530000e-01  7.779723942e-01  7.367060000e-02
 4.429017500e+01  1.680965240e+01 -2.017617000e+01  5.411750000e-01 -6.834760000e-02 -3.391700000e-01  6.423223988e-01  7.394300000e-02
 4.505829000e+01  1.406306260e+01 -2.042001300e+01  4.242900000e-01 -7.893740000e-02 -2.690130000e-01  5.085480424e-01  7.796450000e-02
 4.569449600e+01  1.128395620e+01 -2.062645100e+01  3.114960000e-01 -8.004380000e-02 -2.014510000e-01  3.794987132e-01  8.612960000e-02
 4.619973800e+01  8.483531700e+00 -2.079718300e+01  2.067380000e-01 -7.026830000e-02 -1.381830000e-01  2.584042881e-01  9.775310000e-02
 4.658103400e+01  5.671641700e+00 -2.093688360e+01  1.160340000e-01 -4.845830000e-02 -8.188360000e-02  1.500567224e-01  1.143090000e-01
 4.685483160e+01  2.853618300e+00 -2.105919530e+01  3.883160000e-02 -1.408170000e-02 -3.219530000e-02  5.237102993e-02  1.090450000e-01
 3.607583000e+01  3.124856400e+01 -2.079321000e+01  1.152830000e+00  1.115640000e-01 -7.762100000e-01  1.394261632e+00  1.000820000e-01
 3.759542000e+01  2.903844790e+01 -2.105996900e+01  1.059420000e+00  7.044790000e-02 -7.049690000e-01  1.274486145e+00  9.246780000e-02
 3.895392900e+01  2.669285370e+01 -2.141126600e+01  9.589290000e-01  3.285370000e-02 -6.332660000e-01  1.149630384e+00  8.544250000e-02
 4.017427000e+01  2.424322808e+01 -2.179293800e+01  8.532700000e-01 -7.719170000e-04 -5.609380000e-01  1.021137468e+00  7.938090000e-02
 4.126678800e+01  2.171322800e+01 -2.217101300e+01  7.437880000e-01 -2.977200000e-02 -4.880130000e-01  8.900919329e-01  7.483240000e-02
 4.223471700e+01  1.911570390e+01 -2.252376400e+01  6.317170000e-01 -5.329610000e-02 -4.147640000e-01  7.575856506e-01  7.252700000e-02
 4.307859000e+01  1.646569800e+01 -2.284079700e+01  5.185900000e-01 -7.030200000e-02 -3.417970000e-01  6.250625157e-01  7.327440000e-02
 4.380052500e+01  1.377341330e+01 -2.311809400e+01  4.065250000e-01 -7.958670000e-02 -2.700940000e-01  4.945173276e-01  7.773420000e-02
 4.439956800e+01  1.105025080e+01 -2.335217700e+01  2.985680000e-01 -7.974920000e-02 -2.011770000e-01  3.687478418e-01  8.623200000e-02
 4.487841600e+01  8.307761200e+00 -2.354590200e+01  1.984160000e-01 -6.943880000e-02 -1.369020000e-01  2.508641338e-01  9.802590000e-02
 4.524167000e+01  5.554452000e+00 -2.370517420e+01  1.116700000e-01 -4.754800000e-02 -8.017420000e-02  1.454610035e-01  1.145100000e-01
 4.550251950e+01  2.794889700e+00 -2.384444950e+01  3.751950000e-02 -1.371030000e-02 -3.044950000e-02  5.022805249e-02  1.088000000e-01
 3.523135000e+01  3.057443240e+01 -2.314070400e+01  1.104350000e+00  9.543240000e-02 -7.817040000e-01  1.356376573e+00  9.705470000e-02
 3.665700000e+01  2.841816120e+01 -2.344665900e+01  1.015000000e+00  5.716120000e-02 -7.106590000e-01  1.240374386e+00  8.988540000e-02
 3.792041500e+01  2.611924020e+01 -2.384158200e+01  9.184150000e-01  2.224020000e-02 -6.385820000e-01  1.118824253e+00  8.328720000e-02
 3.905075100e+01  2.371708144e+01 -2.426648400e+01  8.167510000e-01 -8.918560000e-03 -5.654840000e-01  9.934454645e-01  7.766050000e-02
 4.005949000e+01  2.123532670e+01 -2.468652300e+01  7.114900000e-01 -3.567330000e-02 -4.915230000e-01  8.654972351e-01  7.358010000e-02
 4.095292700e+01  1.869081110e+01 -2.507708500e+01  6.039270000e-01 -5.718890000e-02 -4.170850000e-01  7.361781638e-01  7.177710000e-02
 4.173358500e+01  1.609554370e+01 -2.542887800e+01  4.955850000e-01 -7.245630000e-02 -3.428780000e-01  6.069758896e-01  7.302180000e-02
 4.240149700e+01  1.346267890e+01 -2.573500100e+01  3.884970000e-01 -8.032110000e-02 -2.700010000e-01  4.798770031e-01  7.790590000e-02
 4.295753200e+01  1.080056140e+01 -2.599610600e+01  2.855320000e-01 -7.943860000e-02 -2.001060000e-01  3.576051250e-01  8.668150000e-02
 4.340412000e+01  8.120074400e+00 -2.621117800e+01  1.901200000e-01 -6.852560000e-02 -1.351780000e-01  2.431346622e-01  9.855800000e-02
 4.374440500e+01  5.429557700e+00 -2.638829590e+01  1.074050000e-01 -4.654230000e-02 -7.829590000e-02  1.408270843e-01  1.148490000e-01
 4.398733030e+01  2.732495000e+00 -2.654370940e+01  3.633030000e-02 -1.330500000e-02 -2.870940000e-02  4.817824583e-02  1.086560000e-01
 3.431743000e+01  2.987295200e+01 -2.539518100e+01  1.056430000e+00  7.895200000e-02 -7.841810000e-01  1.318035509e+00  9.428260000e-02
 3.562843200e+01  2.778370990e+01 -2.574408900e+01  9.714320000e-01  4.370990000e-02 -7.140890000e-01  1.206446760e+00  8.762940000e-02
 3.678389000e+01  2.554151510e+01 -2.618412400e+01  8.788900000e-01  1.151510000e-02 -6.421240000e-01  1.088532710e+00  8.149840000e-02
 3.781425100e+01  2.319079560e+01 -2.665257300e+01  7.812510000e-01 -1.720440000e-02 -5.685730000e-01  9.663976266e-01  7.633070000e-02
 3.873318500e+01  2.076124750e+01 -2.711282700e+01  6.801850000e-01 -4.175250000e-02 -4.938270000e-01  8.415818507e-01  7.273640000e-02
 3.954708600e+01  1.826971650e+01 -2.754043300e+01  5.770860000e-01 -6.128350000e-02 -4.184330000e-01  7.154509726e-01  7.143980000e-02
 4.025747500e+01  1.573218770e+01 -2.792522900e+01  4.734750000e-01 -7.481230000e-02 -3.432290000e-01  5.895605162e-01  7.316230000e-02
 4.086629600e+01  1.315676830e+01 -2.826042300e+01  3.712960000e-01 -8.123170000e-02 -2.694230000e-01  4.658841719e-01  7.842360000e-02
 4.137523300e+01  1.055573730e+01 -2.854478800e+01  2.732330000e-01 -7.926270000e-02 -1.987880000e-01  3.470670207e-01  8.740490000e-02
 4.178442800e+01  7.937499700e+00 -2.878040900e+01  1.824280000e-01 -6.770030000e-02 -1.334090000e-01  2.359264018e-01  9.927740000e-02
 4.209658200e+01  5.308819700e+00 -2.897449770e+01  1.035820000e-01 -4.558030000e-02 -7.649770000e-02  1.365968249e-01  1.152860000e-01
 4.231738750e+01  2.672578400e+00 -2.914608370e+01  3.538750000e-02 -1.292160000e-02 -2.708370000e-02  4.639794940e-02  1.086160000e-01
 3.333337000e+01  2.921751770e+01 -2.749259300e+01  1.012370000e+00  6.351770000e-02 -7.855930000e-01  1.282998003e+00  9.197620000e-02
 3.449441200e+01  2.722357530e+01 -2.789782500e+01  9.324120000e-01  3.157530000e-02 -7.178250000e-01  1.177141397e+00  8.592020000e-02
 3.552501900e+01  2.504793422e+01 -2.839357100e+01  8.440190000e-01  1.934220000e-03 -6.465710000e-01  1.063214876e+00  8.025350000e-02
 3.644917700e+01  2.274932810e+01 -2.891577600e+01  7.501770000e-01 -2.467190000e-02 -5.727760000e-01  9.441644879e-01  7.551250000e-02
 3.727595700e+01  2.036564210e+01 -2.942228000e+01  6.529570000e-01 -4.735790000e-02 -4.972800000e-01  8.221210452e-01  7.235320000e-02
 3.800890500e+01  1.792179660e+01 -2.989090200e+01  5.539050000e-01 -6.520340000e-02 -4.209020000e-01  6.987279342e-01  7.149420000e-02
 3.864955600e+01  1.543177820e+01 -3.031063500e+01  4.545560000e-01 -7.722180000e-02 -3.446350000e-01  5.756367316e-01  7.361090000e-02
 3.919776000e+01  1.290665340e+01 -3.067680800e+01  3.567600000e-01 -8.234660000e-02 -2.698080000e-01  4.548131671e-01  7.915770000e-02
 3.965702200e+01  1.035564280e+01 -3.098630500e+01  2.630220000e-01 -7.935720000e-02 -1.983050000e-01  3.388259298e-01  8.825580000e-02
 4.002522000e+01  7.788558600e+00 -3.124230900e+01  1.762200000e-01 -6.714140000e-02 -1.323090000e-01  2.303630341e-01  1.000480000e-01
 4.030362800e+01  5.210185500e+00 -3.145316010e+01  1.006280000e-01 -4.481450000e-02 -7.516010000e-02  1.333543191e-01  1.157290000e-01
 4.049582400e+01  2.623214400e+00 -3.163969750e+01  3.482400000e-02 -1.258560000e-02 -2.569750000e-02  4.507182945e-02  1.086540000e-01
 3.227720300e+01  2.872555620e+01 -2.933356400e+01  9.772030000e-01  5.155620000e-02 -7.895640000e-01  1.257376258e+00  9.038750000e-02
 3.322865100e+01  2.685497070e+01 -2.983679500e+01  9.026510000e-01  2.297070000e-02 -7.257950000e-01  1.158483864e+00  8.498010000e-02
 3.411378000e+01  2.474232815e+01 -3.042156700e+01  8.177800000e-01 -4.671850000e-03 -6.555670000e-01  1.048119290e+00  7.970570000e-02
 3.492988900e+01  2.248010170e+01 -3.101627900e+01  7.268890000e-01 -2.989830000e-02 -5.812790000e-01  9.312071749e-01  7.527310000e-02
 3.566663600e+01  2.012658070e+01 -3.158363300e+01  6.326360000e-01 -5.141930000e-02 -5.046330000e-01  8.108802116e-01  7.240030000e-02
 3.632274400e+01  1.771182100e+01 -3.210281200e+01  5.367440000e-01 -6.817900000e-02 -4.268120000e-01  6.891378534e-01  7.180630000e-02
 3.689572200e+01  1.525082730e+01 -3.256498300e+01  4.407220000e-01 -7.917270000e-02 -3.489830000e-01  5.677088444e-01  7.413240000e-02
 3.738631500e+01  1.275464110e+01 -3.296558900e+01  3.463150000e-01 -8.335890000e-02 -2.725890000e-01  4.485393498e-01  7.979450000e-02
 3.779485800e+01  1.023343020e+01 -3.330363800e+01  2.558580000e-01 -7.956980000e-02 -1.996380000e-01  3.341406894e-01  8.888610000e-02
 3.812001200e+01  7.694824700e+00 -3.358240900e+01  1.720120000e-01 -6.677530000e-02 -1.324090000e-01  2.271105724e-01  1.005480000e-01
 3.836175040e+01  5.145268900e+00 -3.381249020e+01  9.875040000e-02 -4.423110000e-02 -7.449020000e-02  1.313652222e-01  1.159300000e-01
 3.852364930e+01  2.588751500e+00 -3.401656150e+01  3.464930000e-02 -1.234850000e-02 -2.456150000e-02  4.423038237e-02  1.086490000e-01
 2.923714700e+01  2.839939800e+01 -2.717678300e+01  9.701470000e-01  1.983980000e-01 -7.907830000e-01  1.267235069e+00  1.012080000e-01
 2.995918000e+01  2.909283400e+01 -2.553197100e+01  1.013180000e+00  2.138340000e-01 -7.969710000e-01  1.306683384e+00  1.041910000e-01
 3.072413000e+01  2.984705200e+01 -2.361225500e+01  1.062130000e+00  2.310520000e-01 -8.012550000e-01  1.350375777e+00  1.076770000e-01
 3.147527000e+01  3.059042900e+01 -2.154017800e+01  1.113270000e+00  2.484290000e-01 -8.021780000e-01  1.394480765e+00  1.115010000e-01
 3.218858000e+01  3.128617300e+01 -1.937407000e+01  1.164580000e+00  2.651730000e-01 -7.990700000e-01  1.437037286e+00  1.155060000e-01
 3.284811000e+01  3.192098900e+01 -1.714582000e+01  1.215110000e+00  2.809890000e-01 -7.918200000e-01  1.477303639e+00  1.196230000e-01
 3.344744000e+01  3.248776400e+01 -1.487050500e+01  1.264440000e+00  2.957640000e-01 -7.805050000e-01  1.515081817e+00  1.238330000e-01
 3.398026000e+01  3.298742700e+01 -1.255724400e+01  1.312260000e+00  3.094270000e-01 -7.652440000e-01  1.550280541e+00  1.281260000e-01
 3.444437000e+01  3.341690800e+01 -1.021406200e+01  1.358370000e+00  3.219080000e-01 -7.461620000e-01  1.582893410e+00  1.324920000e-01
 3.483853000e+01  3.377610600e+01 -7.846394000e+00  1.402530000e+00  3.331060000e-01 -7.233940000e-01  1.612869768e+00  1.369120000e-01
 3.516566000e+01  3.406783000e+01 -5.459107000e+00  1.444660000e+00  3.428300000e-01 -6.971070000e-01  1.640284455e+00  1.413430000e-01
 3.543804000e+01  3.430440000e+01 -3.054767000e+00  1.485040000e+00  3.504000000e-01 -6.676670000e-01  1.665503883e+00  1.457270000e-01
 3.342075000e+00  3.438282100e+01 -3.531390000e+01  9.640750000e-01  4.038210000e-01 -1.425900000e+00  1.767965728e+00  1.723110000e-01
 5.750569000e+00  3.416469200e+01 -3.499040000e+01  9.846690000e-01  3.926920000e-01 -1.370400000e+00  1.732563478e+00  1.648040000e-01
 8.149170000e+00  3.388023900e+01 -3.463557000e+01  1.000670000e+00  3.782390000e-01 -1.313570000e+00  1.694069460e+00  1.572040000e-01
 1.052757000e+01  3.352060300e+01 -3.422581000e+01  1.011870000e+00  3.616030000e-01 -1.255810000e+00  1.652784433e+00  1.497230000e-01
 1.287842000e+01  3.308736100e+01 -3.375361000e+01  1.018420000e+00  3.433610000e-01 -1.197610000e+00  1.609144426e+00  1.424850000e-01
 1.519451000e+01  3.258189600e+01 -3.321441000e+01  1.020510000e+00  3.238960000e-01 -1.139410000e+00  1.563523082e+00  1.355500000e-01
 1.747133000e+01  3.200846800e+01 -3.260954000e+01  1.018330000e+00  3.034680000e-01 -1.081540000e+00  1.516185209e+00  1.289440000e-01
 1.970206000e+01  3.137129300e+01 -3.194026000e+01  1.012060000e+00  2.822930000e-01 -1.024260000e+00  1.467332045e+00  1.226790000e-01
 2.187789000e+01  3.067358700e+01 -3.120886000e+01  1.001890000e+00  2.605870000e-01 -9.678600000e-01  1.417195165e+00  1.167640000e-01
 2.397815100e+01  2.992573100e+01 -3.042292400e+01  9.881510000e-01  2.387310000e-01 -9.129240000e-01  1.366332726e+00  1.112380000e-01
 2.593764100e+01  2.915757600e+01 -2.961315500e+01  9.716410000e-01  2.175760000e-01 -8.611550000e-01  1.316439700e+00  1.062270000e-01
 2.760446900e+01  2.844186400e+01 -2.886553100e+01  9.544690000e-01  1.988640000e-01 -8.165310000e-01  1.271723569e+00  1.019740000e-01
 3.401359710e+01  2.385356010e+00 -3.390454328e+01  2.059710000e-02 -2.543990000e-03 -9.543280000e-03  2.284264885e-02  6.575650000e-02
 3.386594320e+01  4.785032900e+00 -3.368307370e+01  7.394320000e-02  5.432900000e-03 -5.207370000e-02  9.060233695e-02  7.361290000e-02
 3.366604800e+01  7.173843800e+00 -3.344160700e+01  1.420480000e-01  1.054380000e-02 -1.086070000e-01  1.791208711e-01  6.227520000e-02
 3.339914400e+01  9.549000500e+00 -3.315370000e+01  2.191440000e-01  1.840050000e-02 -1.737000000e-01  2.802398279e-01  5.592920000e-02
 3.306525600e+01  1.190408780e+01 -3.280751600e+01  3.022560000e-01  2.908780000e-02 -2.445160000e-01  3.898626218e-01  5.530570000e-02
 3.266289100e+01  1.423059080e+01 -3.239863000e+01  3.888910000e-01  4.259080000e-02 -3.186300000e-01  5.045545194e-01  5.844220000e-02
 3.219335600e+01  1.652478360e+01 -3.192639400e+01  4.773560000e-01  5.878360000e-02 -3.943940000e-01  6.219894610e-01  6.344040000e-02
 3.165830200e+01  1.877756020e+01 -3.139149000e+01  5.663020000e-01  7.756020000e-02 -4.704900000e-01  7.403204576e-01  6.935290000e-02
 3.106060100e+01  2.097876980e+01 -3.079784100e+01  6.546010000e-01  9.876980000e-02 -5.458410000e-01  8.580211768e-01  7.575160000e-02
 3.041375100e+01  2.310002200e+01 -3.015102000e+01  7.407510000e-01  1.220220000e-01 -6.190200000e-01  9.730298931e-01  8.236930000e-02
 2.975679400e+01  2.507227500e+01 -2.947028600e+01  8.217940000e-01  1.462750000e-01 -6.872860000e-01  1.081251035e+00  8.888560000e-02
 2.915704300e+01  2.676024000e+01 -2.881671800e+01  8.920430000e-01  1.692400000e-01 -7.457180000e-01  1.174937542e+00  9.483360000e-02
 3.450520000e+00  3.640867900e+01 -3.329883000e+01  1.056020000e+00  4.556790000e-01 -1.515830000e+00  1.902777491e+00  1.877290000e-01
 3.588010000e+00  3.830088400e+01 -3.115368000e+01  1.152110000e+00  5.038840000e-01 -1.594680000e+00  2.030827624e+00  2.040250000e-01
 3.742530000e+00  4.005195400e+01 -2.888674000e+01  1.252430000e+00  5.459540000e-01 -1.661740000e+00  2.151284849e+00  2.211700000e-01
 3.905790000e+00  4.165203200e+01 -2.650646000e+01  1.356990000e+00  5.790320000e-01 -1.716460000e+00  2.263390123e+00  2.390070000e-01
 4.072990000e+00  4.309395700e+01 -2.402338000e+01  1.465690000e+00  5.999570000e-01 -1.758380000e+00  2.366452155e+00  2.572900000e-01
 4.241140000e+00  4.436833600e+01 -2.144632000e+01  1.578240000e+00  6.053360000e-01 -1.787320000e+00  2.460037795e+00  2.756680000e-01
 4.408560000e+00  4.546770500e+01 -1.878447000e+01  1.694160000e+00  5.917050000e-01 -1.803470000e+00  2.544169207e+00  2.936970000e-01
 4.573920000e+00  4.638284600e+01 -1.605054000e+01  1.812820000e+00  5.558460000e-01 -1.807540000e+00  2.619633940e+00  3.108590000e-01
 4.736010000e+00  4.711010100e+01 -1.325472000e+01  1.933210000e+00  4.951010000e-01 -1.800720000e+00  2.687939438e+00  3.266070000e-01
 4.893460000e+00  4.764382900e+01 -1.041028000e+01  2.054360000e+00  4.078290000e-01 -1.784780000e+00  2.751755649e+00  3.403700000e-01
 5.044140000e+00  4.798672200e+01 -7.528620000e+00  2.174240000e+00  2.937220000e-01 -1.761620000e+00  2.813698139e+00  3.516100000e-01
 5.186040000e+00  4.815972700e+01 -4.621370000e+00  2.290540000e+00  1.547270000e-01 -1.732570000e+00  2.876162850e+00  3.590390000e-01
 5.875880000e+00  3.616336000e+01 -3.299341000e+01  1.077180000e+00  4.433600000e-01 -1.455410000e+00  1.864162844e+00  1.794050000e-01
 6.053450000e+00  3.802929800e+01 -3.086029000e+01  1.173550000e+00  4.912980000e-01 -1.529290000e+00  1.989301694e+00  1.947530000e-01
 6.260310000e+00  3.975751000e+01 -2.860463000e+01  1.273710000e+00  5.345100000e-01 -1.591630000e+00  2.107444937e+00  2.108940000e-01
 6.480180000e+00  4.134076700e+01 -2.623606000e+01  1.377480000e+00  5.707670000e-01 -1.642060000e+00  2.218014239e+00  2.277420000e-01
 6.703270000e+00  4.277161800e+01 -2.376524000e+01  1.484570000e+00  5.976180000e-01 -1.680240000e+00  2.320409838e+00  2.451230000e-01
 6.923460000e+00  4.404145400e+01 -2.120192000e+01  1.594460000e+00  6.124540000e-01 -1.705920000e+00  2.414035136e+00  2.627680000e-01
 7.137470000e+00  4.514563600e+01 -1.855608000e+01  1.706470000e+00  6.126360000e-01 -1.719080000e+00  2.498519317e+00  2.803120000e-01
 7.342720000e+00  4.607472700e+01 -1.583908000e+01  1.819620000e+00  5.957270000e-01 -1.720080000e+00  2.573826492e+00  2.973240000e-01
 7.537560000e+00  4.682475500e+01 -1.306165000e+01  1.932860000e+00  5.597550000e-01 -1.709650000e+00  2.640487940e+00  3.133220000e-01
 7.719900000e+00  4.739248300e+01 -1.023524000e+01  2.044600000e+00  5.034830000e-01 -1.688840000e+00  2.699271168e+00  3.278130000e-01
 7.887900000e+00  4.778280600e+01 -7.372420000e+00  2.153400000e+00  4.268060000e-01 -1.659020000e+00  2.751661731e+00  3.400340000e-01
 8.037740000e+00  4.802386400e+01 -4.482100000e+00  2.254940000e+00  3.308640000e-01 -1.620100000e+00  2.796238438e+00  3.477470000e-01
 8.292020000e+00  3.585038100e+01 -3.265845000e+01  1.093220000e+00  4.273810000e-01 -1.393450000e+00  1.821946045e+00  1.708650000e-01
 8.508750000e+00  3.768553500e+01 -3.054100000e+01  1.189150000e+00  4.745350000e-01 -1.462000000e+00  1.943374691e+00  1.850990000e-01
 8.766220000e+00  3.938310800e+01 -2.829812000e+01  1.288320000e+00  5.181080000e-01 -1.519120000e+00  2.058137482e+00  2.000230000e-01
 9.041080000e+00  4.094038300e+01 -2.594270000e+01  1.390480000e+00  5.563830000e-01 -1.564700000e+00  2.165936925e+00  2.155990000e-01
 9.318070000e+00  4.235050100e+01 -2.348552000e+01  1.495170000e+00  5.875010000e-01 -1.598520000e+00  2.266264977e+00  2.317130000e-01
 9.588690000e+00  4.360748900e+01 -2.093735000e+01  1.601790000e+00  6.094890000e-01 -1.620350000e+00  2.358546622e+00  2.481630000e-01
 9.847580000e+00  4.470536900e+01 -1.830908000e+01  1.709480000e+00  6.203690000e-01 -1.630080000e+00  2.442199904e+00  2.646660000e-01
 1.009144000e+01  4.563829200e+01 -1.561085000e+01  1.817240000e+00  6.182920000e-01 -1.627850000e+00  2.516851572e+00  2.808690000e-01
 1.031783000e+01  4.640080600e+01 -1.285404000e+01  1.923730000e+00  6.018060000e-01 -1.614040000e+00  2.582253414e+00  2.963700000e-01
 1.052454000e+01  4.698995200e+01 -1.005032000e+01  2.027640000e+00  5.699520000e-01 -1.589420000e+00  2.638640784e+00  3.107160000e-01
 1.070912000e+01  4.741261300e+01 -7.210390000e+00  2.126920000e+00  5.226130000e-01 -1.554590000e+00  2.685826335e+00  3.230170000e-01
 1.086957000e+01  4.769756900e+01 -4.343710000e+00  2.218570000e+00  4.605690000e-01 -1.510510000e+00  2.723199792e+00  3.315630000e-01
 1.068855000e+01  3.545481100e+01 -3.227440000e+01  1.103850000e+00  4.088110000e-01 -1.330400000e+00  1.776393936e+00  1.623840000e-01
 1.094351000e+01  3.725060200e+01 -3.017540000e+01  1.198610000e+00  4.546020000e-01 -1.393400000e+00  1.893381227e+00  1.754350000e-01
 1.125021000e+01  3.890869300e+01 -2.794806000e+01  1.296010000e+00  4.976930000e-01 -1.445060000e+00  2.003880896e+00  1.890530000e-01
 1.157776000e+01  4.042978100e+01 -2.560852000e+01  1.395760000e+00  5.367810000e-01 -1.485520000e+00  2.107854238e+00  2.032380000e-01
 1.190736000e+01  4.180848400e+01 -2.316873000e+01  1.497360000e+00  5.704840000e-01 -1.514730000e+00  2.204982072e+00  2.179240000e-01
 1.222615000e+01  4.304234700e+01 -2.063953000e+01  1.600150000e+00  5.973470000e-01 -1.532530000e+00  2.294766145e+00  2.329710000e-01
 1.252828000e+01  4.412388700e+01 -1.803280000e+01  1.703280000e+00  6.158870000e-01 -1.538800000e+00  2.376633122e+00  2.481590000e-01
 1.280864000e+01  4.504875200e+01 -1.535855000e+01  1.805640000e+00  6.247520000e-01 -1.533550000e+00  2.449984995e+00  2.632080000e-01
 1.306604000e+01  4.581181900e+01 -1.262803000e+01  1.906040000e+00  6.228190000e-01 -1.517030000e+00  2.514412856e+00  2.777850000e-01
 1.329597000e+01  4.641236400e+01 -9.852080000e+00  2.002970000e+00  6.093640000e-01 -1.489580000e+00  2.569447778e+00  2.914570000e-01
 1.349688000e+01  4.685420200e+01 -7.041690000e+00  2.094880000e+00  5.842020000e-01 -1.451990000e+00  2.614974025e+00  3.035310000e-01
 1.366823000e+01  4.716671600e+01 -4.204990000e+00  2.179230000e+00  5.477160000e-01 -1.404790000e+00  2.649994557e+00  3.127370000e-01
 1.305720000e+01  3.497726200e+01 -3.183180000e+01  1.109200000e+00  3.882620000e-01 -1.266800000e+00  1.727962459e+00  1.541340000e-01
 1.335006000e+01  3.672314100e+01 -2.975513000e+01  1.202060000e+00  4.321410000e-01 -1.324130000e+00  1.839840848e+00  1.659920000e-01
 1.370392000e+01  3.833096400e+01 -2.754721000e+01  1.296920000e+00  4.739640000e-01 -1.370210000e+00  1.945281163e+00  1.782850000e-01
 1.408151000e+01  3.980375400e+01 -2.522746000e+01  1.393510000e+00  5.127540000e-01 -1.405460000e+00  2.044530410e+00  1.910480000e-01
 1.446034000e+01  4.114151200e+01 -2.280900000e+01  1.491340000e+00  5.475120000e-01 -1.430000000e+00  2.137466815e+00  2.042530000e-01
 1.482576000e+01  4.233917600e+01 -2.030480000e+01  1.589760000e+00  5.771760000e-01 -1.443800000e+00  2.223741764e+00  2.178050000e-01
 1.516794000e+01  4.339368100e+01 -1.772375000e+01  1.687940000e+00  6.006810000e-01 -1.446750000e+00  2.302834052e+00  2.315420000e-01
 1.548388000e+01  4.429900700e+01 -1.507986000e+01  1.784880000e+00  6.170070000e-01 -1.438860000e+00  2.374197202e+00  2.452450000e-01
 1.576936000e+01  4.505333100e+01 -1.238120000e+01  1.879360000e+00  6.253310000e-01 -1.420200000e+00  2.437211708e+00  2.586330000e-01
 1.602112000e+01  4.565303300e+01 -9.639520000e+00  1.970120000e+00  6.250330000e-01 -1.391120000e+00  2.491436116e+00  2.713710000e-01
 1.623873000e+01  4.610492000e+01 -6.865270000e+00  2.055730000e+00  6.159200000e-01 -1.352070000e+00  2.536429886e+00  2.829190000e-01
 1.642138000e+01  4.643307000e+01 -4.065880000e+00  2.134380000e+00  5.980700000e-01 -1.303880000e+00  2.571647092e+00  2.923010000e-01
 1.539145000e+01  3.441918900e+01 -3.132815000e+01  1.109450000e+00  3.661890000e-01 -1.203150000e+00  1.677063985e+00  1.461980000e-01
 1.571971000e+01  3.610470500e+01 -2.927878000e+01  1.199710000e+00  4.077050000e-01 -1.254780000e+00  1.783255534e+00  1.568880000e-01
 1.611830000e+01  3.765060100e+01 -2.709429000e+01  1.291300000e+00  4.476010000e-01 -1.295290000e+00  1.882970666e+00  1.678830000e-01
 1.654400000e+01  3.906515600e+01 -2.479736000e+01  1.384000000e+00  4.851560000e-01 -1.325360000e+00  1.976717348e+00  1.792450000e-01
 1.696940000e+01  4.034866400e+01 -2.240532000e+01  1.477400000e+00  5.196640000e-01 -1.345320000e+00  2.064617964e+00  1.909790000e-01
 1.737690000e+01  4.150038800e+01 -1.992926000e+01  1.570900000e+00  5.503880000e-01 -1.355260000e+00  2.146481639e+00  2.030250000e-01
 1.775774000e+01  4.251655600e+01 -1.738215000e+01  1.663740000e+00  5.765560000e-01 -1.355150000e+00  2.221908894e+00  2.152660000e-01
 1.810600000e+01  4.339343500e+01 -1.477298000e+01  1.755000000e+00  5.974350000e-01 -1.344980000e+00  2.290398389e+00  2.275330000e-01
 1.841764000e+01  4.412738200e+01 -1.211284000e+01  1.843640000e+00  6.123820000e-01 -1.324840000e+00  2.351429605e+00  2.396130000e-01
 1.869050000e+01  4.471791000e+01 -9.412420000e+00  1.928500000e+00  6.209100000e-01 -1.294920000e+00  2.404466528e+00  2.512450000e-01
 1.892243000e+01  4.516878200e+01 -6.681200000e+00  2.008430000e+00  6.227820000e-01 -1.255700000e+00  2.449169446e+00  2.620080000e-01
 1.911515000e+01  4.550486600e+01 -3.926070000e+00  2.082150000e+00  6.178660000e-01 -1.207870000e+00  2.485167389e+00  2.711850000e-01
 1.768481000e+01  3.378293300e+01 -3.076383000e+01  1.104810000e+00  3.429330000e-01 -1.139830000e+00  1.624013734e+00  1.386230000e-01
 1.804580000e+01  3.539774400e+01 -2.874482000e+01  1.191800000e+00  3.817440000e-01 -1.185820000e+00  1.724031552e+00  1.481920000e-01
 1.848643000e+01  3.687119900e+01 -2.658786000e+01  1.279430000e+00  4.191990000e-01 -1.220860000e+00  1.817461985e+00  1.579440000e-01
 1.895658000e+01  3.821577500e+01 -2.431991000e+01  1.367580000e+00  4.547750000e-01 -1.245910000e+00  1.905095033e+00  1.679650000e-01
 1.942393000e+01  3.943500100e+01 -2.195748000e+01  1.455930000e+00  4.880010000e-01 -1.261480000e+00  1.987261667e+00  1.782830000e-01
 1.987096000e+01  4.052937500e+01 -1.951680000e+01  1.543960000e+00  5.183750000e-01 -1.267800000e+00  2.063938459e+00  1.888670000e-01
 2.028702000e+01  4.149736800e+01 -1.700693000e+01  1.631020000e+00  5.453680000e-01 -1.264930000e+00  2.134877139e+00  1.996350000e-01
 2.066433000e+01  4.233543900e+01 -1.443890000e+01  1.716330000e+00  5.684390000e-01 -1.252900000e+00  2.199697701e+00  2.104620000e-01
 2.099998000e+01  4.304011800e+01 -1.182379000e+01  1.798980000e+00  5.871180000e-01 -1.231790000e+00  2.257951105e+00  2.211920000e-01
 2.129100000e+01  4.361199100e+01 -9.171290000e+00  1.878000000e+00  6.009910000e-01 -1.201790000e+00  2.309193233e+00  2.316260000e-01
 2.153645000e+01  4.405382800e+01 -6.489650000e+00  1.952450000e+00  6.098280000e-01 -1.163250000e+00  2.353104705e+00  2.414460000e-01
 2.173851000e+01  4.438933300e+01 -3.785620000e+00  2.021510000e+00  6.133330000e-01 -1.116920000e+00  2.389600455e+00  2.501310000e-01
 1.993150000e+01  3.307278700e+01 -3.013917000e+01  1.095500000e+00  3.187870000e-01 -1.077170000e+00  1.569089102e+00  1.314310000e-01
 2.032258000e+01  3.460565600e+01 -2.815565000e+01  1.178580000e+00  3.546560000e-01 -1.117650000e+00  1.662520140e+00  1.399390000e-01
 2.080060000e+01  3.599630400e+01 -2.603040000e+01  1.261600000e+00  3.893040000e-01 -1.147400000e+00  1.749205227e+00  1.485200000e-01
 2.131059000e+01  3.726036100e+01 -2.379464000e+01  1.344590000e+00  4.223610000e-01 -1.167640000e+00  1.830216996e+00  1.572860000e-01
 2.181632000e+01  3.840452900e+01 -2.146808000e+01  1.427320000e+00  4.535290000e-01 -1.179080000e+00  1.906085146e+00  1.662780000e-01
 2.229939000e+01  3.943249500e+01 -1.906608000e+01  1.509390000e+00  4.824950000e-01 -1.182080000e+00  1.976960476e+00  1.754830000e-01
 2.274527000e+01  4.034189800e+01 -1.659979000e+01  1.590270000e+00  5.088980000e-01 -1.176790000e+00  2.042736045e+00  1.848470000e-01
 2.314831000e+01  4.113136500e+01 -1.408030000e+01  1.669310000e+00  5.323650000e-01 -1.163300000e+00  2.103158401e+00  1.942850000e-01
 2.350576000e+01  4.179954100e+01 -1.151570000e+01  1.745760000e+00  5.525410000e-01 -1.141700000e+00  2.157882857e+00  2.036840000e-01
 2.381281000e+01  4.234410000e+01 -8.916960000e+00  1.818810000e+00  5.691000000e-01 -1.112160000e+00  2.206545828e+00  2.129000000e-01
 2.406976000e+01  4.276980900e+01 -6.291210000e+00  1.887760000e+00  5.818090000e-01 -1.075010000e+00  2.248952207e+00  2.216940000e-01
 2.428110000e+01  4.309727600e+01 -3.644420000e+00  1.952100000e+00  5.902760000e-01 -1.030920000e+00  2.285151245e+00  2.297030000e-01
 2.212167000e+01  3.229101300e+01 -2.945946000e+01  1.081670000e+00  2.940130000e-01 -1.015460000e+00  1.512485585e+00  1.246300000e-01
 2.254120000e+01  3.373177700e+01 -2.751557000e+01  1.160200000e+00  3.267770000e-01 -1.050570000e+00  1.598919814e+00  1.321360000e-01
 2.305301000e+01  3.502736900e+01 -2.542724000e+01  1.238010000e+00  3.583690000e-01 -1.075240000e+00  1.678463034e+00  1.396300000e-01
 2.359827000e+01  3.620054100e+01 -2.322795000e+01  1.315270000e+00  3.885410000e-01 -1.090950000e+00  1.752447199e+00  1.472390000e-01
 2.413788000e+01  3.726112000e+01 -2.094258000e+01  1.391880000e+00  4.171200000e-01 -1.098580000e+00  1.821591899e+00  1.550090000e-01
 2.465157000e+01  3.821292600e+01 -1.858460000e+01  1.467570000e+00  4.439260000e-01 -1.098600000e+00  1.886200933e+00  1.629380000e-01
 2.512392000e+01  3.905673600e+01 -1.616725000e+01  1.541920000e+00  4.687360000e-01 -1.091250000e+00  1.946293217e+00  1.709960000e-01
 2.555041000e+01  3.979029400e+01 -1.369968000e+01  1.614410000e+00  4.912940000e-01 -1.076680000e+00  2.001731567e+00  1.791290000e-01
 2.592544000e+01  4.041234900e+01 -1.119199000e+01  1.684440000e+00  5.113490000e-01 -1.054990000e+00  2.052271866e+00  1.872630000e-01
 2.624736000e+01  4.092364000e+01 -8.652670000e+00  1.751360000e+00  5.286400000e-01 -1.026370000e+00  2.097655233e+00  1.952940000e-01
 2.651466000e+01  4.132595600e+01 -6.088073000e+00  1.814660000e+00  5.429560000e-01 -9.910730000e-01  2.137760002e+00  2.030510000e-01
 2.673309000e+01  4.163883000e+01 -3.503834000e+00  1.874090000e+00  5.538300000e-01 -9.497340000e-01  2.172771426e+00  2.102860000e-01
 2.423430000e+01  3.144087300e+01 -2.873910100e+01  1.063300000e+00  2.688730000e-01 -9.551010000e-01  1.454344354e+00  1.182230000e-01
 2.468041000e+01  3.277230500e+01 -2.684787300e+01  1.136410000e+00  2.983050000e-01 -9.848730000e-01  1.533097644e+00  1.247580000e-01
 2.522432000e+01  3.396263700e+01 -2.480367000e+01  1.208320000e+00  3.266370000e-01 -1.004670000e+00  1.605020486e+00  1.312350000e-01
 2.580336000e+01  3.503567300e+01 -2.264716000e+01  1.279360000e+00  3.536730000e-01 -1.016160000e+00  1.671654195e+00  1.377780000e-01
 2.637450000e+01  3.600432800e+01 -2.040535000e+01  1.349500000e+00  3.793280000e-01 -1.020350000e+00  1.733826434e+00  1.444260000e-01
 2.691553000e+01  3.687350600e+01 -1.809478000e+01  1.418530000e+00  4.035060000e-01 -1.017780000e+00  1.791904177e+00  1.511870000e-01
 2.741313000e+01  3.764407700e+01 -1.572876000e+01  1.486130000e+00  4.260770000e-01 -1.008760000e+00  1.846001280e+00  1.580530000e-01
 2.785990000e+01  3.831587800e+01 -1.331747000e+01  1.551900000e+00  4.468780000e-01 -9.934700000e-01  1.896068616e+00  1.649950000e-01
 2.825138000e+01  3.888773100e+01 -1.086853900e+01  1.615380000e+00  4.657310000e-01 -9.720390000e-01  1.941962339e+00  1.719650000e-01
 2.858507000e+01  3.935844000e+01 -8.390029000e+00  1.676070000e+00  4.824400000e-01 -9.446290000e-01  1.983502696e+00  1.788940000e-01
 2.886059000e+01  3.973180800e+01 -5.888593000e+00  1.733590000e+00  4.968080000e-01 -9.114930000e-01  2.020636525e+00  1.856620000e-01
 2.908592000e+01  4.002532500e+01 -3.367758000e+00  1.787920000e+00  5.083250000e-01 -8.731580000e-01  2.053644839e+00  1.921010000e-01
 2.620781000e+01  3.052170700e+01 -2.803796600e+01  1.039810000e+00  2.437070000e-01 -8.969660000e-01  1.394684890e+00  1.122200000e-01
 2.668985000e+01  3.171131100e+01 -2.622290400e+01  1.105850000e+00  2.693110000e-01 -9.209040000e-01  1.464068583e+00  1.177310000e-01
 2.727500000e+01  3.277806800e+01 -2.423286800e+01  1.171000000e+00  2.940680000e-01 -9.358680000e-01  1.527601356e+00  1.232100000e-01
 2.789342000e+01  3.374479600e+01 -2.212149700e+01  1.235420000e+00  3.177960000e-01 -9.434970000e-01  1.586645349e+00  1.287450000e-01
 2.849895000e+01  3.461936300e+01 -1.992171700e+01  1.298950000e+00  3.403630000e-01 -9.447170000e-01  1.641830772e+00  1.343640000e-01
 2.907033000e+01  3.540370100e+01 -1.765604600e+01  1.361330000e+00  3.617010000e-01 -9.400460000e-01  1.693438356e+00  1.400810000e-01
 2.959327000e+01  3.610072900e+01 -1.533778400e+01  1.422270000e+00  3.817290000e-01 -9.297840000e-01  1.741570346e+00  1.458940000e-01
 3.006044000e+01  3.670833800e+01 -1.297612300e+01  1.481440000e+00  4.003380000e-01 -9.141230000e-01  1.786212710e+00  1.517880000e-01
 3.046849000e+01  3.722540400e+01 -1.057990800e+01  1.538490000e+00  4.174040000e-01 -8.932080000e-01  1.827292563e+00  1.577350000e-01
 3.081404000e+01  3.765377600e+01 -8.156294000e+00  1.593040000e+00  4.327760000e-01 -8.671940000e-01  1.864697547e+00  1.636890000e-01
 3.109786000e+01  3.799327300e+01 -5.710393000e+00  1.644860000e+00  4.462730000e-01 -8.362930000e-01  1.898449365e+00  1.695680000e-01
 3.133008000e+01  3.826231600e+01 -3.244959000e+00  1.694080000e+00  4.573160000e-01 -8.009590000e-01  1.928880579e+00  1.752540000e-01
 2.792801000e+01  2.953119000e+01 -2.747749500e+01  1.010010000e+00  2.191900000e-01 -8.424950000e-01  1.333402520e+00  1.066930000e-01
 2.848708000e+01  3.051389200e+01 -2.576597900e+01  1.066080000e+00  2.398920000e-01 -8.589790000e-01  1.389935128e+00  1.109900000e-01
 2.914238000e+01  3.143471600e+01 -2.383383300e+01  1.123380000e+00  2.607160000e-01 -8.688330000e-01  1.443892738e+00  1.154400000e-01
 2.981705000e+01  3.229103700e+01 -2.175896700e+01  1.181050000e+00  2.810370000e-01 -8.729670000e-01  1.495303408e+00  1.200440000e-01
 3.047023000e+01  3.307353900e+01 -1.958878300e+01  1.238230000e+00  3.005390000e-01 -8.717830000e-01  1.543872670e+00  1.247710000e-01
 3.108139000e+01  3.378006700e+01 -1.735256100e+01  1.294390000e+00  3.190670000e-01 -8.655610000e-01  1.589479496e+00  1.296020000e-01
 3.163616000e+01  3.440753400e+01 -1.506451800e+01  1.349160000e+00  3.365340000e-01 -8.545180000e-01  1.632081141e+00  1.345260000e-01
 3.212923000e+01  3.495485500e+01 -1.273482100e+01  1.402230000e+00  3.528550000e-01 -8.388210000e-01  1.671638805e+00  1.395340000e-01
 3.255734000e+01  3.542093500e+01 -1.037281400e+01  1.453340000e+00  3.679350000e-01 -8.186140000e-01  1.708128274e+00  1.446090000e-01
 3.291820000e+01  3.580665000e+01 -7.984238000e+00  1.502200000e+00  3.816500000e-01 -7.940380000e-01  1.741481527e+00  1.497220000e-01
 3.321368000e+01  3.611379300e+01 -5.573886000e+00  1.548680000e+00  3.937930000e-01 -7.652860000e-01  1.771763339e+00  1.548150000e-01
 3.345505000e+01  3.635869800e+01 -3.144168000e+00  1.593050000e+00  4.036980000e-01 -7.327680000e-01  1.799369145e+00  1.598080000e-01
 3.209445000e+00  3.145897180e+00 -4.798769650e+01  6.294500000e-02 -1.202820000e-03 -2.869650000e-02  6.918821369e-02  9.676200000e-02
 3.270472000e+00  6.153236000e+00 -4.772573300e+01  1.279720000e-01  1.153600000e-02 -1.127330000e-01  1.709346114e-01  1.001650000e-01
 3.255696000e+00  9.032680800e+00 -4.735534100e+01  1.948960000e-01  2.098080000e-02 -2.173410000e-01  2.926802950e-01  9.352310000e-02
 3.232443000e+00  1.184405680e+01 -4.684508500e+01  2.628430000e-01  3.605680000e-02 -3.340850000e-01  4.266137863e-01  9.199750000e-02
 3.218537000e+00  1.460882770e+01 -4.618443800e+01  3.327370000e-01  5.682770000e-02 -4.594380000e-01  5.701110195e-01  9.392320000e-02
 3.214217000e+00  1.733173710e+01 -4.536622100e+01  4.044170000e-01  8.373710000e-02 -5.892210000e-01  7.195459670e-01  9.828950000e-02
 3.216088000e+00  2.000560000e+01 -4.438855700e+01  4.779880000e-01  1.166000000e-01 -7.205570000e-01  8.725081538e-01  1.046340000e-01
 3.221428000e+00  2.262005100e+01 -4.325486700e+01  5.534280000e-01  1.550510000e-01 -8.508670000e-01  1.026790152e+00  1.126160000e-01
 3.228531000e+00  2.516347900e+01 -4.196518000e+01  6.308310000e-01  1.984790000e-01 -9.781800000e-01  1.180753055e+00  1.220370000e-01
 3.238978000e+00  2.762710300e+01 -4.052486000e+01  7.103780000e-01  2.461030000e-01 -1.100860000e+00  1.333077766e+00  1.327740000e-01
 3.259472000e+00  2.999695500e+01 -3.893544000e+01  7.923720000e-01  2.969550000e-01 -1.217440000e+00  1.482631381e+00  1.447560000e-01
 3.299616000e+00  3.226085800e+01 -3.720038000e+01  8.771160000e-01  3.498580000e-01 -1.326380000e+00  1.628194399e+00  1.579330000e-01
 6.190365500e+00  3.133506470e+00 -4.764082610e+01  6.006550000e-02 -1.793530000e-03 -2.582610000e-02  6.540694521e-02  9.275950000e-02
 6.297480000e+00  6.184752000e+00 -4.733007000e+01  1.268800000e-01  1.175200000e-02 -1.080700000e-01  1.670801269e-01  9.619440000e-02
 6.261915000e+00  9.090826300e+00 -4.693570000e+01  1.964150000e-01  2.142630000e-02 -2.107000000e-01  2.888467216e-01  8.906880000e-02
 6.184176000e+00  1.189794130e+01 -4.641409900e+01  2.674760000e-01  3.694130000e-02 -3.240990000e-01  4.218391068e-01  8.739920000e-02
 6.104838000e+00  1.464057970e+01 -4.574892600e+01  3.400380000e-01  5.757970000e-02 -4.449260000e-01  5.629390809e-01  8.924100000e-02
 6.033519000e+00  1.733183320e+01 -4.493254100e+01  4.143190000e-01  8.383320000e-02 -5.695410000e-01  7.092708861e-01  9.356180000e-02
 5.968515000e+00  1.997259900e+01 -4.396239800e+01  4.903150000e-01  1.155990000e-01 -6.953980000e-01  8.586910425e-01  9.980850000e-02
 5.906203000e+00  2.255456600e+01 -4.283923100e+01  5.680030000e-01  1.525660000e-01 -8.202310000e-01  1.009298115e+00  1.076020000e-01
 5.844694000e+00  2.506922400e+01 -4.156524500e+01  6.473940000e-01  1.942240000e-01 -9.422450000e-01  1.159598031e+00  1.167300000e-01
 5.787841000e+00  2.750488500e+01 -4.014394000e+01  7.286410000e-01  2.398850000e-01 -1.059940000e+00  1.308409463e+00  1.270680000e-01
 5.749217000e+00  2.985069500e+01 -3.857777000e+01  8.120170000e-01  2.886950000e-01 -1.171770000e+00  1.454565689e+00  1.385450000e-01
 5.747713000e+00  3.208965500e+01 -3.686703000e+01  8.978130000e-01  3.396550000e-01 -1.276030000e+00  1.596773704e+00  1.511170000e-01
 9.040633000e+00  3.043075840e+00 -4.716389500e+01  5.533300000e-02 -1.624160000e-03 -2.189500000e-02  5.952957088e-02  8.888140000e-02
 9.168716000e+00  6.062627900e+00 -4.682773080e+01  1.221160000e-01  1.102790000e-02 -9.973080000e-02  1.580511452e-01  9.247800000e-02
 9.142146000e+00  8.972730900e+00 -4.641973800e+01  1.935460000e-01  2.073090000e-02 -1.987380000e-01  2.781845017e-01  8.487430000e-02
 9.046374000e+00  1.178576680e+01 -4.589375700e+01  2.673740000e-01  3.576680000e-02 -3.087570000e-01  4.099987865e-01  8.294800000e-02
 8.929521000e+00  1.452586870e+01 -4.522960200e+01  3.429210000e-01  5.586870000e-02 -4.256020000e-01  5.494116729e-01  8.470830000e-02
 8.809097000e+00  1.720521490e+01 -4.442079400e+01  4.199970000e-01  8.121490000e-02 -5.457940000e-01  6.934583120e-01  8.899440000e-02
 8.688186000e+00  1.982873100e+01 -4.346291300e+01  4.985860000e-01  1.117310000e-01 -6.669130000e-01  8.401456810e-01  9.513670000e-02
 8.565072000e+00  2.239214500e+01 -4.235689500e+01  5.785720000e-01  1.471450000e-01 -7.868950000e-01  9.877251395e-01  1.027260000e-01
 8.439135000e+00  2.488600600e+01 -4.110511800e+01  6.599350000e-01  1.870060000e-01 -9.041180000e-01  1.134863343e+00  1.115390000e-01
 8.317592000e+00  2.730168500e+01 -3.971119000e+01  7.427920000e-01  2.306850000e-01 -1.017190000e+00  1.280480777e+00  1.214530000e-01
 8.222307000e+00  2.962839200e+01 -3.817554000e+01  8.274070000e-01  2.773920000e-01 -1.124540000e+00  1.423425051e+00  1.323900000e-01
 8.181841000e+00  3.184628000e+01 -3.649525000e+01  9.140410000e-01  3.262800000e-01 -1.224250000e+00  1.562279633e+00  1.442970000e-01
 1.182069400e+01  2.946503070e+00 -4.653544700e+01  5.069400000e-02 -1.696930000e-03 -1.844700000e-02  5.397270622e-02  8.533030000e-02
 1.193629400e+01  5.901040800e+00 -4.618712130e+01  1.162940000e-01  1.024080000e-02 -9.112130000e-02  1.480954413e-01  8.925670000e-02
 1.191569500e+01  8.784120300e+00 -4.577252900e+01  1.886950000e-01  1.952030000e-02 -1.855290000e-01  2.653447851e-01  8.116750000e-02
 1.181562700e+01  1.158798280e+01 -4.524845600e+01  2.646270000e-01  3.398280000e-02 -2.914560000e-01  3.951314715e-01  7.880220000e-02
 1.167871900e+01  1.432124780e+01 -4.459217400e+01  3.427190000e-01  5.324780000e-02 -4.041740000e-01  5.325863906e-01  8.039190000e-02
 1.152440500e+01  1.699051310e+01 -4.379702900e+01  4.224050000e-01  7.751310000e-02 -5.200290000e-01  6.744363762e-01  8.461730000e-02
 1.135840600e+01  1.960063600e+01 -4.285862500e+01  5.034060000e-01  1.066360000e-01 -6.366250000e-01  8.185842827e-01  9.065890000e-02
 1.118253200e+01  2.214738200e+01 -4.177799800e+01  5.855320000e-01  1.403820000e-01 -7.519980000e-01  9.633565389e-01  9.804890000e-02
 1.099868500e+01  2.462434900e+01 -4.055665400e+01  6.686850000e-01  1.783490000e-01 -8.646540000e-01  1.107508255e+00  1.065500000e-01
 1.081694900e+01  2.702194500e+01 -3.919928100e+01  7.529490000e-01  2.199450000e-01 -9.732810000e-01  1.250033561e+00  1.160350000e-01
 1.066804300e+01  2.932942000e+01 -3.770225000e+01  8.385430000e-01  2.644200000e-01 -1.076250000e+00  1.389743272e+00  1.264180000e-01
 1.059168800e+01  3.152503200e+01 -3.606046000e+01  9.256880000e-01  3.110320000e-01 -1.171460000e+00  1.525109081e+00  1.376370000e-01
 1.455637690e+01  2.860915400e+00 -4.574470380e+01  4.637690000e-02 -1.784600000e-03 -1.570380000e-02  4.899603030e-02  8.206610000e-02
 1.464255100e+01  5.742890390e+00 -4.539351290e+01  1.105510000e-01  9.490390000e-03 -8.351290000e-02  1.388740277e-01  8.639680000e-02
 1.461520300e+01  8.580004400e+00 -4.498096300e+01  1.832030000e-01  1.830440000e-02 -1.729630000e-01  2.526154976e-01  7.786000000e-02
 1.451052100e+01  1.135701290e+01 -4.446327000e+01  2.605210000e-01  3.201290000e-02 -2.742700000e-01  3.796314662e-01  7.501380000e-02
 1.435860700e+01  1.407034680e+01 -4.382146200e+01  3.406070000e-01  5.034680000e-02 -3.824620000e-01  5.146116110e-01  7.636590000e-02
 1.417743600e+01  1.672238220e+01 -4.304678100e+01  4.224360000e-01  7.338220000e-02 -4.937810000e-01  6.539547365e-01  8.048800000e-02
 1.397449900e+01  1.931399400e+01 -4.213577300e+01  5.054990000e-01  1.009940000e-01 -6.057730000e-01  7.954181005e-01  8.641670000e-02
 1.375244400e+01  2.184095800e+01 -4.108854200e+01  5.894440000e-01  1.329580000e-01 -7.165420000e-01  9.373123794e-01  9.361020000e-02
 1.351409900e+01  2.429791700e+01 -3.990767200e+01  6.740990000e-01  1.689170000e-01 -8.246720000e-01  1.078436981e+00  1.018050000e-01
 1.327647600e+01  2.667631200e+01 -3.859589600e+01  7.594760000e-01  2.083120000e-01 -9.288960000e-01  1.217803540e+00  1.108660000e-01
 1.307872300e+01  2.896141900e+01 -3.714750000e+01  8.457230000e-01  2.504190000e-01 -1.027500000e+00  1.354146712e+00  1.206980000e-01
 1.296897900e+01  3.112956300e+01 -3.555217000e+01  9.329790000e-01  2.945630000e-01 -1.118170000e+00  1.485772972e+00  1.312300000e-01
 1.724736690e+01  2.785103040e+00 -4.479354100e+01  4.236690000e-02 -1.896960000e-03 -1.354100000e-02  4.451866298e-02  7.908370000e-02
 1.729907300e+01  5.595353370e+00 -4.444397900e+01  1.050730000e-01  8.853370000e-03 -7.697900000e-02  1.305545247e-01  8.382460000e-02
 1.725755300e+01  8.376644900e+00 -4.403847900e+01  1.775530000e-01  1.714490000e-02 -1.614790000e-01  2.406127238e-01  7.484150000e-02
 1.714166700e+01  1.111305310e+01 -4.353486300e+01  2.556670000e-01  3.005310000e-02 -2.578630000e-01  3.643653805e-01  7.153880000e-02
 1.697416100e+01  1.379433620e+01 -4.291321000e+01  3.371610000e-01  4.733620000e-02 -3.612100000e-01  4.963777995e-01  7.264020000e-02
 1.676863000e+01  1.641905460e+01 -4.216573100e+01  4.206300000e-01  6.905460000e-02 -4.677310000e-01  6.328273248e-01  7.663250000e-02
 1.653230600e+01  1.898405530e+01 -4.128996900e+01  5.053060000e-01  9.505530000e-02 -5.749690000e-01  7.713358637e-01  8.243250000e-02
 1.626768800e+01  2.148614400e+01 -4.028506000e+01  5.906880000e-01  1.251440000e-01 -6.810600000e-01  9.101736415e-01  8.942710000e-02
 1.598149800e+01  2.391899800e+01 -3.915465000e+01  6.764980000e-01  1.589980000e-01 -7.846500000e-01  1.048143850e+00  9.732160000e-02
 1.569266100e+01  2.627309300e+01 -3.789847600e+01  7.626610000e-01  1.960930000e-01 -8.844760000e-01  1.184230577e+00  1.059670000e-01
 1.544820400e+01  2.853072100e+01 -3.650870000e+01  8.492040000e-01  2.357210000e-01 -9.787000000e-01  1.317029048e+00  1.152600000e-01
 1.530815200e+01  3.066624800e+01 -3.496681000e+01  9.361520000e-01  2.772480000e-01 -1.064810000e+00  1.444668598e+00  1.251180000e-01
 1.988656910e+01  2.714494560e+00 -4.368186140e+01  3.856910000e-02 -2.005440000e-03 -1.186140000e-02  4.040160980e-02  7.636140000e-02
 1.990278890e+01  5.454575840e+00 -4.333930730e+01  9.978890000e-02  8.275840000e-03 -7.130730000e-02  1.229269910e-01  8.153030000e-02
 1.984180500e+01  8.174747900e+00 -4.294697700e+01  1.718050000e-01  1.604790000e-02 -1.509770000e-01  2.292783192e-01  7.209540000e-02
 1.971224300e+01  1.086010500e+01 -4.246230700e+01  2.502430000e-01  2.810500000e-02 -2.423070000e-01  3.494626337e-01  6.834280000e-02
 1.952661200e+01  1.349927370e+01 -4.186758600e+01  3.326120000e-01  4.427370000e-02 -3.405860000e-01  4.781105797e-01  6.919620000e-02
 1.929621200e+01  1.608759030e+01 -4.115611100e+01  4.172120000e-01  6.459030000e-02 -4.421110000e-01  6.113099837e-01  7.304820000e-02
 1.902805000e+01  1.861890900e+01 -4.032245300e+01  5.030500000e-01  8.890900000e-02 -5.444530000e-01  7.465876921e-01  7.870780000e-02
 1.872546800e+01  2.108804900e+01 -3.936979900e+01  5.894680000e-01  1.170490000e-01 -6.457990000e-01  8.821730782e-01  8.550040000e-02
 1.839407900e+01  2.349072700e+01 -3.829783400e+01  6.760790000e-01  1.487270000e-01 -7.448340000e-01  1.016848181e+00  9.310020000e-02
 1.805669500e+01  2.581644800e+01 -3.710727700e+01  7.626950000e-01  1.834480000e-01 -8.402770000e-01  1.149531326e+00  1.013420000e-01
 1.777018300e+01  2.804252100e+01 -3.578413900e+01  8.491830000e-01  2.205210000e-01 -9.301390000e-01  1.278632018e+00  1.101110000e-01
 1.760240100e+01  3.013932600e+01 -3.430569000e+01  9.354010000e-01  2.593260000e-01 -1.011690000e+00  1.402049094e+00  1.193150000e-01
 2.246192250e+01  2.645593880e+00 -4.241356990e+01  3.492250000e-02 -2.106120000e-03 -1.056990000e-02  3.654777057e-02  7.388850000e-02
 2.244559590e+01  5.315733700e+00 -4.208329590e+01  9.459590000e-02  7.733700000e-03 -6.629590000e-02  1.157727981e-01  7.952380000e-02
 2.236390100e+01  7.971172200e+00 -4.170826200e+01  1.659010000e-01  1.497220000e-02 -1.412620000e-01  2.184084733e-01  6.964900000e-02
 2.221626300e+01  1.059915140e+01 -4.124849800e+01  2.442630000e-01  2.615140000e-02 -2.274980000e-01  3.348188300e-01  6.543260000e-02
 2.201103300e+01  1.318815220e+01 -4.068758700e+01  3.270330000e-01  4.115220000e-02 -3.205870000e-01  4.598044271e-01  6.602580000e-02
 2.175728700e+01  1.573101350e+01 -4.001798200e+01  4.122870000e-01  6.001350000e-02 -4.169820000e-01  5.894541364e-01  6.972790000e-02
 2.145884800e+01  1.822059450e+01 -3.923633900e+01  4.988480000e-01  8.259450000e-02 -5.143390000e-01  7.212598599e-01  7.523730000e-02
 2.111991600e+01  2.065273800e+01 -3.834290200e+01  5.859160000e-01  1.087380000e-01 -6.109020000e-01  8.534182827e-01  8.182570000e-02
 2.074599000e+01  2.302019300e+01 -3.734039400e+01  6.729900000e-01  1.381930000e-01 -7.053940000e-01  9.846794101e-01  8.913950000e-02
 2.036574500e+01  2.531249500e+01 -3.622449400e+01  7.597450000e-01  1.704950000e-01 -7.964940000e-01  1.113859822e+00  9.699260000e-02
 2.003984100e+01  2.750196700e+01 -3.497703900e+01  8.458410000e-01  2.049670000e-01 -8.820390000e-01  1.239133272e+00  1.052530000e-01
 1.984592100e+01  2.955198600e+01 -3.356906500e+01  9.309210000e-01  2.409860000e-01 -9.590650000e-01  1.358121436e+00  1.138250000e-01
 2.496140610e+01  2.576503730e+00 -4.099360428e+01  3.140610000e-02 -2.196270000e-03 -9.604280000e-03  3.291517755e-02  7.166450000e-02
 2.491544180e+01  5.176108190e+00 -4.067981830e+01  8.944180000e-02  7.208190000e-03 -6.181830000e-02  1.089646539e-01  7.781800000e-02
 2.481180700e+01  7.764300400e+00 -4.032721100e+01  1.598070000e-01  1.390040000e-02 -1.322110000e-01  2.078731510e-01  6.754020000e-02
 2.464574400e+01  1.033017750e+01 -3.989838000e+01  2.377440000e-01  2.417750000e-02 -2.133800000e-01  3.203713243e-01  6.283770000e-02
 2.442149700e+01  1.286298010e+01 -3.937724100e+01  3.204970000e-01  3.798010000e-02 -3.012410000e-01  4.414826781e-01  6.314190000e-02
 2.414298000e+01  1.535335240e+01 -3.875645500e+01  4.059800000e-01  5.535240000e-02 -3.924550000e-01  5.673663504e-01  6.667680000e-02
 2.381686900e+01  1.779616940e+01 -3.803279700e+01  4.928690000e-01  7.616940000e-02 -4.847970000e-01  6.955212145e-01  7.202480000e-02
 2.344323800e+01  2.018529700e+01 -3.720858900e+01  5.802380000e-01  1.002970000e-01 -5.765890000e-01  8.241301474e-01  7.840690000e-02
 2.303147700e+01  2.251451400e+01 -3.628258900e+01  6.674770000e-01  1.275140000e-01 -6.665890000e-01  9.519066449e-01  8.544760000e-02
 2.261009700e+01  2.476838600e+01 -3.525042300e+01  7.540970000e-01  1.573860000e-01 -7.534230000e-01  1.077533691e+00  9.293570000e-02
 2.224649100e+01  2.691524700e+01 -3.408773600e+01  8.394910000e-01  1.892470000e-01 -8.347360000e-01  1.198892721e+00  1.007070000e-01
 2.202801400e+01  2.891346300e+01 -3.275929800e+01  9.230140000e-01  2.224630000e-01 -9.072980000e-01  1.313253323e+00  1.086610000e-01
 2.737505090e+01  2.507728320e+00 -3.942793881e+01  2.805090000e-02 -2.271680000e-03 -8.938810000e-03  2.952822116e-02  6.969710000e-02
 2.730238230e+01  5.037590590e+00 -3.913486730e+01  8.438230000e-02  6.690590000e-03 -5.786730000e-02  1.025366323e-01  7.640950000e-02
 2.717764800e+01  7.557830000e+00 -3.880888800e+01  1.536480000e-01  1.283000000e-02 -1.238880000e-01  1.977891639e-01  6.578980000e-02
 2.699291300e+01  1.006019560e+01 -3.841512600e+01  2.309130000e-01  2.219560000e-02 -2.001260000e-01  3.063721170e-01  6.058780000e-02
 2.674734900e+01  1.253279960e+01 -3.793885400e+01  3.133490000e-01  3.479960000e-02 -2.828540000e-01  4.235622661e-01  6.057340000e-02
 2.644674700e+01  1.496869670e+01 -3.737296300e+01  3.987470000e-01  5.069670000e-02 -3.689630000e-01  5.456216828e-01  6.392530000e-02
 2.609167300e+01  1.736177960e+01 -3.671537600e+01  4.856730000e-01  6.977960000e-02 -4.563760000e-01  6.700944030e-01  6.910550000e-02
 2.568709200e+01  1.970493890e+01 -3.596550300e+01  5.730920000e-01  9.193890000e-02 -5.435030000e-01  7.951620670e-01  7.528470000e-02
 2.523828500e+01  2.199198300e+01 -3.512314000e+01  6.602850000e-01  1.169830000e-01 -6.291400000e-01  9.194990175e-01  8.207030000e-02
 2.477757100e+01  2.420550100e+01 -3.418185200e+01  7.465710000e-01  1.445010000e-01 -7.118520000e-01  1.041624725e+00  8.923340000e-02
 2.437599000e+01  2.630684100e+01 -3.311206200e+01  8.309900000e-01  1.738410000e-01 -7.890620000e-01  1.159044397e+00  9.655710000e-02
 2.412741100e+01  2.824123500e+01 -3.187623300e+01  9.124110000e-01  2.042350000e-01 -8.572330000e-01  1.268484996e+00  1.038940000e-01
 2.969498760e+01  2.445246160e+00 -3.772262144e+01  2.498760000e-02 -2.353840000e-03 -8.621440000e-03  2.653770797e-02  6.800640000e-02
 2.959773740e+01  4.912063270e+00 -3.745367460e+01  7.973740000e-02  6.163270000e-03 -5.467460000e-02  9.687801991e-02  7.526840000e-02
 2.945300500e+01  7.370530600e+00 -3.715774300e+01  1.480050000e-01  1.173060000e-02 -1.167430000e-01  1.888703657e-01  6.438530000e-02
 2.924763200e+01  9.813513700e+00 -3.680345900e+01  2.246320000e-01  2.021370000e-02 -1.884590000e-01  2.939131228e-01  5.870900000e-02
 2.898074300e+01  1.223169760e+01 -3.637543000e+01  3.067430000e-01  3.169760000e-02 -2.664300000e-01  4.075303066e-01  5.838260000e-02
 2.865403000e+01  1.461624950e+01 -3.586678600e+01  3.920300000e-01  4.624950000e-02 -3.477860000e-01  5.261004077e-01  6.156410000e-02
 2.826996900e+01  1.696178260e+01 -3.527560400e+01  4.789690000e-01  6.378260000e-02 -4.306040000e-01  6.472243257e-01  6.659320000e-02
 2.783043100e+01  1.926320560e+01 -3.460339100e+01  5.664310000e-01  8.420560000e-02 -5.133910000e-01  7.690936092e-01  7.259360000e-02
 2.734357200e+01  2.151034900e+01 -3.384797500e+01  6.535720000e-01  1.073490000e-01 -5.949750000e-01  8.903232096e-01  7.915780000e-02
 2.683747100e+01  2.368383600e+01 -3.300083500e+01  7.394710000e-01  1.328360000e-01 -6.738350000e-01  1.009215720e+00  8.604270000e-02
 2.638662000e+01  2.573388600e+01 -3.203617700e+01  8.226200000e-01  1.598860000e-01 -7.471770000e-01  1.122738022e+00  9.299140000e-02
 2.608708200e+01  2.759144500e+01 -3.092507800e+01  9.010820000e-01  1.874450000e-01 -8.110780000e-01  1.226756667e+00  9.973010000e-02
 3.191549250e+01  2.404176570e+00 -3.588281750e+01  2.249250000e-02 -2.423430000e-03 -8.817500000e-03  2.428031869e-02  6.665860000e-02
 3.179825010e+01  4.828036160e+00 -3.564176230e+01  7.625010000e-02  5.536160000e-03 -5.276230000e-02  9.289018850e-02  7.432940000e-02
 3.163315600e+01  7.243372600e+00 -3.537974200e+01  1.441560000e-01  1.047260000e-02 -1.117420000e-01  1.826934653e-01  6.320620000e-02
 3.140473400e+01  9.644639200e+00 -3.506380600e+01  2.207340000e-01  1.813920000e-02 -1.798060000e-01  2.852765798e-01  5.711950000e-02
 3.111107900e+01  1.202269830e+01 -3.468286700e+01  3.030790000e-01  2.869830000e-02 -2.538670000e-01  3.963949121e-01  5.656690000e-02
 3.075276600e+01  1.437223700e+01 -3.422926400e+01  3.887660000e-01  4.223700000e-02 -3.312640000e-01  5.125024923e-01  5.967040000e-02
 3.033119100e+01  1.668467360e+01 -3.370221600e+01  4.761910000e-01  5.867360000e-02 -4.102160000e-01  6.312508428e-01  6.463620000e-02
 2.984910800e+01  1.895391920e+01 -3.310131400e+01  5.641080000e-01  7.791920000e-02 -4.893140000e-01  7.508111800e-01  7.054190000e-02
 2.931251900e+01  2.117080740e+01 -3.242839900e+01  6.515190000e-01  9.980740000e-02 -5.673990000e-01  8.697011841e-01  7.696720000e-02
 2.874615300e+01  2.330891300e+01 -3.167688800e+01  7.371530000e-01  1.239130000e-01 -6.428880000e-01  9.859279677e-01  8.365080000e-02
 2.821280400e+01  2.530725900e+01 -3.084087400e+01  8.188040000e-01  1.492590000e-01 -7.128740000e-01  1.095859288e+00  9.029180000e-02
 2.780791700e+01  2.706508200e+01 -2.991882300e+01  8.929170000e-01  1.740820000e-01 -7.728230000e-01  1.193675291e+00  9.646340000e-02
 3.729201000e+01  3.213026400e+01 -2.996719000e+00  1.371010000e+00  2.982640000e-01 -6.057190000e-01  1.528242566e+00  1.328740000e-01
 3.901883000e+01  2.985014100e+01 -2.974903000e+00  1.251830000e+00  2.481410000e-01 -5.466030000e-01  1.388318099e+00  1.211720000e-01
 4.060699000e+01  2.746527100e+01 -2.971047000e+00  1.127990000e+00  2.012710000e-01 -4.895470000e-01  1.246004703e+00  1.105790000e-01
 4.205107000e+01  2.498542200e+01 -2.974184000e+00  1.000070000e+00  1.584220000e-01 -4.340840000e-01  1.101665309e+00  1.010520000e-01
 4.334474200e+01  2.242015700e+01 -2.978529000e+00  8.687420000e-01  1.201570000e-01 -3.799290000e-01  9.557700624e-01  9.258810000e-02
 4.448397700e+01  1.977793980e+01 -2.981230000e+00  7.349770000e-01  8.693980000e-02 -3.269300000e-01  8.090939032e-01  8.527660000e-02
 4.546523800e+01  1.707015820e+01 -2.980844000e+00  6.002380000e-01  5.915820000e-02 -2.750440000e-01  6.628985980e-01  7.935430000e-02
 4.628673000e+01  1.430608370e+01 -2.976859000e+00  4.667300000e-01  3.708370000e-02 -2.243590000e-01  5.191811385e-01  7.531370000e-02
 4.694747800e+01  1.149686090e+01 -2.969113000e+00  3.374780000e-01  2.086090000e-02 -1.750130000e-01  3.807310439e-01  7.401700000e-02
 4.744992400e+01  8.653123200e+00 -2.957795000e+00  2.169240000e-01  1.032320000e-02 -1.273950000e-01  2.517778312e-01  7.687820000e-02
 4.780239000e+01  5.784596060e+00 -2.943558000e+00  1.103900000e-01  5.196060000e-03 -8.165800000e-02  1.374080787e-01  8.500170000e-02
 4.803288310e+01  2.892620530e+00 -2.928407000e+00  2.788310000e-02 -2.779470000e-03 -3.850700000e-02  4.762333218e-02  8.020660000e-02
 3.700054000e+01  3.191154000e+01 -5.415725000e+00  1.334540000e+00  2.925400000e-01 -6.326250000e-01  1.505586615e+00  1.289720000e-01
 3.870795000e+01  2.964718700e+01 -5.431506000e+00  1.218950000e+00  2.441870000e-01 -5.710060000e-01  1.368032984e+00  1.176280000e-01
 4.027857000e+01  2.727993700e+01 -5.478144000e+00  1.098570000e+00  1.989370000e-01 -5.113440000e-01  1.227967696e+00  1.072900000e-01
 4.170704300e+01  2.481551600e+01 -5.536480000e+00  9.740430000e-01  1.575160000e-01 -4.530800000e-01  1.085749761e+00  9.791440000e-02
 4.299007000e+01  2.226543900e+01 -5.595607000e+00  8.460700000e-01  1.204390000e-01 -3.959070000e-01  9.418504925e-01  8.949050000e-02
 4.412162100e+01  1.964012590e+01 -5.649900000e+00  7.156210000e-01  8.812590000e-02 -3.397000000e-01  7.970418307e-01  8.210150000e-02
 4.509913700e+01  1.694892330e+01 -5.696596000e+00  5.841370000e-01  6.092330000e-02 -2.844960000e-01  6.525838316e-01  7.599470000e-02
 4.592081100e+01  1.420208390e+01 -5.734683000e+00  4.538110000e-01  3.908390000e-02 -2.304830000e-01  5.104844643e-01  7.171470000e-02
 4.658560500e+01  1.141176260e+01 -5.763710000e+00  3.276050000e-01  2.276260000e-02 -1.780100000e-01  3.735381267e-01  7.027430000e-02
 4.709498900e+01  8.587871900e+00 -5.784115000e+00  2.099890000e-01  1.177190000e-02 -1.276150000e-01  2.460072072e-01  7.330570000e-02
 4.746109700e+01  5.740562410e+00 -5.797093700e+00  1.060970000e-01  5.962410000e-03 -7.989370000e-02  1.329478358e-01  8.205000000e-02
 4.771904610e+01  2.870848030e+00 -5.807045700e+00  2.604610000e-02 -2.551970000e-03 -3.604570000e-02  4.454440890e-02  7.727100000e-02
 3.665370000e+01  3.164745700e+01 -7.823964000e+00  1.296700000e+00  2.844570000e-01 -6.569640000e-01  1.481198289e+00  1.250530000e-01
 3.833696000e+01  2.940479800e+01 -7.879837000e+00  1.184960000e+00  2.377980000e-01 -5.932370000e-01  1.346331396e+00  1.141060000e-01
 3.988220000e+01  2.705617800e+01 -7.977256000e+00  1.068200000e+00  1.941780000e-01 -5.312560000e-01  1.208713892e+00  1.040670000e-01
 4.128819200e+01  2.461123200e+01 -8.090234000e+00  9.471920000e-01  1.542320000e-01 -4.704340000e-01  1.068769546e+00  9.488980000e-02
 4.255170900e+01  2.207942200e+01 -8.203466000e+00  8.227090000e-01  1.184220000e-01 -4.104660000e-01  9.270146741e-01  8.655960000e-02
 4.366772600e+01  1.947312370e+01 -8.308468000e+00  6.957260000e-01  8.712370000e-02 -3.512680000e-01  7.842285470e-01  7.915930000e-02
 4.463367900e+01  1.680265530e+01 -8.401347000e+00  5.676790000e-01  6.065530000e-02 -2.929470000e-01  6.416825206e-01  7.295000000e-02
 4.544871800e+01  1.407726320e+01 -8.480120000e+00  4.407180000e-01  3.926320000e-02 -2.358200000e-01  5.013831138e-01  6.852650000e-02
 4.610978400e+01  1.131010490e+01 -8.544483000e+00  3.177840000e-01  2.310490000e-02 -1.803830000e-01  3.661400466e-01  6.703670000e-02
 4.662121700e+01  8.509968600e+00 -8.594728000e+00  2.032170000e-01  1.206860000e-02 -1.274280000e-01  2.401680565e-01  7.032690000e-02
 4.699315500e+01  5.688294870e+00 -8.633105600e+00  1.021550000e-01  6.094870000e-03 -7.790560000e-02  1.286159942e-01  7.964500000e-02
 4.726341700e+01  2.844903320e+00 -8.666211000e+00  2.441700000e-02 -2.596680000e-03 -3.351100000e-02  4.154419041e-02  7.475140000e-02
 3.623509000e+01  3.132390400e+01 -1.021470000e+01  1.257090000e+00  2.749040000e-01 -6.783000000e-01  1.454626539e+00  1.211720000e-01
 3.788535000e+01  2.910799400e+01 -1.031144900e+01  1.149350000e+00  2.299940000e-01 -6.128490000e-01  1.322681579e+00  1.106500000e-01
 3.939632000e+01  2.678208400e+01 -1.045946600e+01  1.036320000e+00  1.880840000e-01 -5.488660000e-01  1.187682036e+00  1.009390000e-01
 4.076896100e+01  2.435871000e+01 -1.062677000e+01  9.189610000e-01  1.497100000e-01 -4.857700000e-01  1.050178507e+00  9.198920000e-02
 4.200311000e+01  2.185027300e+01 -1.079228100e+01  7.981100000e-01  1.152730000e-01 -4.232810000e-01  9.107328047e-01  8.378540000e-02
 4.309477400e+01  1.926810620e+01 -1.094736000e+01  6.747740000e-01  8.510620000e-02 -3.613600000e-01  7.701584681e-01  7.641320000e-02
 4.404137800e+01  1.662250620e+01 -1.108419500e+01  5.503780000e-01  5.950620000e-02 -3.001950000e-01  6.297411919e-01  7.014870000e-02
 4.484104300e+01  1.392370430e+01 -1.120221700e+01  4.270430000e-01  3.870430000e-02 -2.402170000e-01  4.914956295e-01  6.563260000e-02
 4.549363700e+01  1.118488270e+01 -1.130108700e+01  3.076370000e-01  2.288270000e-02 -1.820870000e-01  3.582175558e-01  6.414210000e-02
 4.600040200e+01  8.415277500e+00 -1.137883900e+01  1.964020000e-01  1.197750000e-02 -1.268390000e-01  2.341053994e-01  6.772950000e-02
 4.637333260e+01  5.624881410e+00 -1.144070860e+01  9.833260000e-02  5.981410000e-03 -7.570860000e-02  1.242451995e-01  7.759590000e-02
 4.664704530e+01  2.813336340e+00 -1.149589530e+01  2.304530000e-02 -2.663660000e-03 -3.089530000e-02  3.863548238e-02  7.253670000e-02
 3.573870000e+01  3.093518900e+01 -1.258241900e+01  1.215700000e+00  2.641890000e-01 -6.964190000e-01  1.425735509e+00  1.173610000e-01
 3.734605000e+01  2.875114100e+01 -1.271861600e+01  1.112050000e+00  2.211410000e-01 -6.296160000e-01  1.296909732e+00  1.072840000e-01
 3.881184000e+01  2.645205000e+01 -1.291694700e+01  1.002840000e+00  1.810500000e-01 -5.639470000e-01  1.164690254e+00  9.791850000e-02
 4.014222100e+01  2.405435400e+01 -1.313587000e+01  8.892210000e-01  1.443540000e-01 -4.988700000e-01  1.029768586e+00  8.921540000e-02
 4.133613700e+01  2.157439700e+01 -1.335314800e+01  7.721370000e-01  1.113970000e-01 -4.341480000e-01  8.927985911e-01  8.116180000e-02
 4.239362700e+01  1.902047640e+01 -1.355579700e+01  6.526270000e-01  8.247640000e-02 -3.697970000e-01  7.546351296e-01  7.384940000e-02
 4.331211100e+01  1.640585970e+01 -1.373608700e+01  5.321110000e-01  5.785970000e-02 -3.060870000e-01  6.165866628e-01  6.756930000e-02
 4.409066400e+01  1.374077140e+01 -1.389156400e+01  4.126640000e-01  3.777140000e-02 -2.435640000e-01  4.806679495e-01  6.300370000e-02
 4.472707400e+01  1.103640330e+01 -1.402204800e+01  2.970740000e-01  2.240330000e-02 -1.830480000e-01  3.496590334e-01  6.155700000e-02
 4.522444400e+01  8.302529900e+00 -1.412678600e+01  1.894440000e-01  1.172990000e-02 -1.257860000e-01  2.277031785e-01  6.548150000e-02
 4.559260960e+01  5.549408350e+00 -1.421029200e+01  9.460960000e-02  5.808350000e-03 -7.329200000e-02  1.198183233e-01  7.587220000e-02
 4.586487890e+01  2.775659430e+00 -1.428423260e+01  2.187890000e-02 -2.740570000e-03 -2.823260000e-02  3.582285153e-02  7.059820000e-02
 3.516364000e+01  3.048244600e+01 -1.491917300e+01  1.172640000e+00  2.524460000e-01 -7.111730000e-01  1.394482194e+00  1.136350000e-01
 3.671914000e+01  2.833338900e+01 -1.509537800e+01  1.073140000e+00  2.113890000e-01 -6.433780000e-01  1.268956272e+00  1.040150000e-01
 3.812979900e+01  2.606522600e+01 -1.534033400e+01  9.677990000e-01  1.732260000e-01 -5.763340000e-01  1.139650399e+00  9.500870000e-02
 3.940600300e+01  2.369931100e+01 -1.561057000e+01  8.580030000e-01  1.383110000e-01 -5.095700000e-01  1.007452562e+00  8.656780000e-02
 4.055080700e+01  2.124993700e+01 -1.587690900e+01  7.448070000e-01  1.069370000e-01 -4.429090000e-01  8.731216247e-01  7.868720000e-02
 4.156529500e+01  1.873136430e+01 -1.612443500e+01  6.292950000e-01  7.936430000e-02 -3.764350000e-01  7.375731817e-01  7.146800000e-02
 4.244687700e+01  1.615383780e+01 -1.634550100e+01  5.128770000e-01  5.583780000e-02 -3.105010000e-01  6.021391434e-01  6.521570000e-02
 4.319557700e+01  1.352656860e+01 -1.653676700e+01  3.975770000e-01  3.656860000e-02 -2.457670000e-01  4.688348875e-01  6.065060000e-02
 4.381008200e+01  1.086275420e+01 -1.669619500e+01  2.860820000e-01  2.175420000e-02 -1.831950000e-01  3.404064687e-01  5.930360000e-02
 4.429233400e+01  8.171705700e+00 -1.682623800e+01  1.823340000e-01  1.140570000e-02 -1.242380000e-01  2.209317953e-01  6.360560000e-02
 4.465195810e+01  5.461808710e+00 -1.692965050e+01  9.095810000e-02  5.608710000e-03 -7.065050000e-02  1.153096992e-01  7.447720000e-02
 4.491990770e+01  2.732003030e+00 -1.702254400e+01  2.090770000e-02 -2.796970000e-03 -2.554400000e-02  3.312779643e-02  6.893460000e-02
 3.451209000e+01  2.996575000e+01 -1.721943700e+01  1.128090000e+00  2.397500000e-01 -7.224370000e-01  1.360875575e+00  1.099990000e-01
 3.600475000e+01  2.785581300e+01 -1.743400600e+01  1.032750000e+00  2.008130000e-01 -6.540060000e-01  1.238798721e+00  1.008480000e-01
 3.734931300e+01  2.562268300e+01 -1.772389200e+01  9.313130000e-01  1.646830000e-01 -5.858920000e-01  1.112534867e+00  9.221080000e-02
 3.856140800e+01  2.329164500e+01 -1.804073300e+01  8.254080000e-01  1.316450000e-01 -5.177330000e-01  9.831969446e-01  8.404810000e-02
 3.964721300e+01  2.087994600e+01 -1.835343200e+01  7.162130000e-01  1.019460000e-01 -4.494320000e-01  8.516708114e-01  7.636620000e-02
 4.060885700e+01  1.840081720e+01 -1.864315300e+01  6.048570000e-01  7.581720000e-02 -3.811530000e-01  7.189421727e-01  6.927840000e-02
 4.144674500e+01  1.586447810e+01 -1.890233500e+01  4.927450000e-01  5.347810000e-02 -3.133350000e-01  5.863756172e-01  6.310590000e-02
 4.215783700e+01  1.328312640e+01 -1.912674700e+01  3.818370000e-01  3.512640000e-02 -2.467470000e-01  4.559796493e-01  5.860470000e-02
 4.274469900e+01  1.066596180e+01 -1.931448200e+01  2.746990000e-01  2.096180000e-02 -1.824820000e-01  3.304521417e-01  5.742940000e-02
 4.320708700e+01  8.023018100e+00 -1.946717300e+01  1.750870000e-01  1.101810000e-02 -1.221730000e-01  2.137828291e-01  6.214600000e-02
 4.355437860e+01  5.362401560e+00 -1.958979270e+01  8.737860000e-02  5.401560000e-03 -6.779270000e-02  1.107250954e-01  7.342800000e-02
 4.381211970e+01  2.682264480e+00 -1.969885290e+01  2.011970000e-02 -2.835520000e-03 -2.285290000e-02  3.057936461e-02  6.755390000e-02
 3.378829000e+01  2.938716700e+01 -1.947310900e+01  1.082290000e+00  2.261670000e-01 -7.301090000e-01  1.324976342e+00  1.064620000e-01
 3.520608500e+01  2.732147500e+01 -1.972540600e+01  9.910850000e-01  1.894750000e-01 -6.614060000e-01  1.206485868e+00  9.779100000e-02
 3.647458100e+01  2.512748100e+01 -2.005853200e+01  8.935810000e-01  1.554810000e-01 -5.925320000e-01  1.083399980e+00  8.953630000e-02
 3.761262700e+01  2.283540800e+01 -2.041927100e+01  7.916270000e-01  1.244080000e-01 -5.232710000e-01  9.570596622e-01  8.166990000e-02
 3.862953300e+01  2.046546900e+01 -2.077363500e+01  6.865330000e-01  9.646900000e-02 -4.536350000e-01  8.285037968e-01  7.421480000e-02
 3.953048000e+01  1.803086910e+01 -2.110287800e+01  5.794800000e-01  7.186910000e-02 -3.838780000e-01  6.988022301e-01  6.730210000e-02
 4.031486000e+01  1.554280610e+01 -2.139753000e+01  4.718600000e-01  5.080610000e-02 -3.145300000e-01  5.693524746e-01  6.126990000e-02
 4.098256100e+01  1.301146320e+01 -2.165146400e+01  3.655610000e-01  3.346320000e-02 -2.464640000e-01  4.421528398e-01  5.691000000e-02
 4.153501000e+01  1.044703620e+01 -2.186588800e+01  2.630100000e-01  2.003620000e-02 -1.808880000e-01  3.198377369e-01  5.599380000e-02
 4.197275100e+01  7.857579100e+00 -2.203959500e+01  1.677510000e-01  1.057910000e-02 -1.195950000e-01  2.062893099e-01  6.115130000e-02
 4.230288520e+01  5.251786930e+00 -2.217873960e+01  8.388520000e-02  5.186930000e-03 -6.473960000e-02  1.060888629e-01  7.274020000e-02
 4.254850860e+01  2.627049260e+00 -2.230418920e+01  1.950860000e-02 -2.850740000e-03 -2.018920000e-02  2.821907137e-02  6.646820000e-02
 3.299569000e+01  2.875383000e+01 -2.166819900e+01  1.035690000e+00  2.118300000e-01 -7.341990000e-01  1.287079600e+00  1.030560000e-01
 3.432665800e+01  2.673751700e+01 -2.195766600e+01  9.486580000e-01  1.775170000e-01 -6.656660000e-01  1.172422923e+00  9.489070000e-02
 3.550612800e+01  2.458875300e+01 -2.233138400e+01  8.551280000e-01  1.457530000e-01 -5.963840000e-01  1.052692599e+00  8.703520000e-02
 3.656018300e+01  2.234071400e+01 -2.273333000e+01  7.571830000e-01  1.167140000e-01 -5.263300000e-01  9.295006843e-01  7.947930000e-02
 3.750027000e+01  2.001659210e+01 -2.312666100e+01  6.562700000e-01  9.059210000e-02 -4.556610000e-01  8.040672785e-01  7.227790000e-02
 3.833162600e+01  1.763057840e+01 -2.349174700e+01  5.536260000e-01  6.757840000e-02 -3.847470000e-01  6.775683302e-01  6.558530000e-02
 3.905663100e+01  1.519485570e+01 -2.381821700e+01  4.506310000e-01  4.785570000e-02 -3.142170000e-01  5.514442758e-01  5.975730000e-02
 3.967408700e+01  1.271859290e+01 -2.410104000e+01  3.490870000e-01  3.159290000e-02 -2.450400000e-01  4.276732941e-01  5.562420000e-02
 4.018627200e+01  1.021098140e+01 -2.433852500e+01  2.512720000e-01  1.898140000e-02 -1.785250000e-01  3.088188582e-01  5.505770000e-02
 4.059449800e+01  7.680280600e+00 -2.453160100e+01  1.604980000e-01  1.008060000e-02 -1.166010000e-01  1.986379110e-01  6.065660000e-02
 4.090256480e+01  5.133565110e+00 -2.468756520e+01  8.056480000e-02  4.965110000e-03 -6.156520000e-02  1.015165660e-01  7.241620000e-02
 4.113209190e+01  2.568148290e+00 -2.482760110e+01  1.909190000e-02 -2.851710000e-03 -1.760110000e-02  2.612339214e-02  6.569270000e-02
 3.213961600e+01  2.809018900e+01 -2.377424600e+01  9.896160000e-01  1.971890000e-01 -7.352460000e-01  1.248523131e+00  9.989740000e-02
 3.336303600e+01  2.613845200e+01 -2.410462900e+01  9.070360000e-01  1.654520000e-01 -6.676290000e-01  1.138339647e+00  9.228650000e-02
 3.444061200e+01  2.404197100e+01 -2.452042000e+01  8.176120000e-01  1.359710000e-01 -5.984200000e-01  1.022293496e+00  8.483480000e-02
 3.540170400e+01  2.184293900e+01 -2.496389300e+01  7.237040000e-01  1.089390000e-01 -5.278930000e-01  9.023780831e-01  7.759330000e-02
 3.625795000e+01  1.956758250e+01 -2.539544800e+01  6.269500000e-01  8.458250000e-02 -4.564480000e-01  7.801059406e-01  7.066490000e-02
 3.701467400e+01  1.723211290e+01 -2.579561700e+01  5.286740000e-01  6.311290000e-02 -3.846170000e-01  6.568178386e-01  6.422820000e-02
 3.767525000e+01  1.484871190e+01 -2.615215000e+01  4.302500000e-01  4.471190000e-02 -3.131500000e-01  5.340197927e-01  5.865990000e-02
 3.823839500e+01  1.242854160e+01 -2.646211000e+01  3.333950000e-01  2.954160000e-02 -2.431100000e-01  4.136754818e-01  5.483000000e-02
 3.870622600e+01  9.978185400e+00 -2.672189700e+01  2.402260000e-01  1.778540000e-02 -1.758970000e-01  2.982693517e-01  5.467410000e-02
 3.907983000e+01  7.506105950e+00 -2.693355400e+01  1.538300000e-01  9.505950000e-03 -1.135540000e-01  1.914380916e-01  6.066090000e-02
 3.936168540e+01  5.018220090e+00 -2.710548480e+01  7.768540000e-02  4.720090000e-03 -5.848480000e-02  9.735385177e-02  7.243370000e-02
 3.956994800e+01  2.511063690e+00 -2.726117860e+01  1.894800000e-02 -2.836310000e-03 -1.517860000e-02  2.444302061e-02  6.524500000e-02
 3.122120200e+01  2.746444700e+01 -2.573111800e+01  9.472020000e-01  1.834470000e-01 -7.351180000e-01  1.212948022e+00  9.723000000e-02
 3.230274700e+01  2.560255800e+01 -2.611373600e+01  8.697470000e-01  1.545580000e-01 -6.697360000e-01  1.108555064e+00  9.022320000e-02
 3.326250400e+01  2.356927300e+01 -2.658419600e+01  7.845040000e-01  1.272730000e-01 -6.011960000e-01  9.965347826e-01  8.316310000e-02
 3.412341500e+01  2.141899200e+01 -2.707640300e+01  6.944150000e-01  1.019920000e-01 -5.304030000e-01  8.797396789e-01  7.622490000e-02
 3.489247800e+01  1.918812520e+01 -2.755222500e+01  6.014780000e-01  7.912520000e-02 -4.582250000e-01  7.602675400e-01  6.956360000e-02
 3.557416700e+01  1.689696060e+01 -2.799045900e+01  5.071670000e-01  5.896060000e-02 -3.854590000e-01  6.397447608e-01  6.339240000e-02
 3.616786200e+01  1.456070370e+01 -2.838000300e+01  4.128620000e-01  4.170370000e-02 -3.130030000e-01  5.197740929e-01  5.811150000e-02
 3.667519400e+01  1.218751780e+01 -2.871802700e+01  3.201940000e-01  2.751780000e-02 -2.420270000e-01  4.023164124e-01  5.462300000e-02
 3.709613200e+01  9.785175800e+00 -2.900101300e+01  2.311320000e-01  1.657580000e-02 -1.740130000e-01  2.897883413e-01  5.486740000e-02
 3.743254900e+01  7.361824530e+00 -2.923212700e+01  1.485490000e-01  8.924530000e-03 -1.111270000e-01  1.857300804e-01  6.111600000e-02
 3.768366140e+01  4.922221110e+00 -2.942084910e+01  7.566140000e-02  4.521110000e-03 -5.584910000e-02  9.414993285e-02  7.274740000e-02
 3.786618800e+01  2.463076760e+00 -2.959202940e+01  1.918800000e-02 -2.823240000e-03 -1.302940000e-02  2.336483025e-02  6.513740000e-02
 3.024447400e+01  2.699058700e+01 -2.744640500e+01  9.134740000e-01  1.725870000e-01 -7.374050000e-01  1.186586345e+00  9.531680000e-02
 3.112740300e+01  2.524471700e+01 -2.792088900e+01  8.414030000e-01  1.467170000e-01 -6.758890000e-01  1.089178969e+00  8.896770000e-02
 3.194576200e+01  2.327119500e+01 -2.847632200e+01  7.597620000e-01  1.211950000e-01 -6.083220000e-01  9.808069027e-01  8.226730000e-02
 3.270265200e+01  2.115709880e+01 -2.903703400e+01  6.726520000e-01  9.709880000e-02 -5.370340000e-01  8.661953632e-01  7.555880000e-02
 3.338766300e+01  1.895419080e+01 -2.956872300e+01  5.826630000e-01  7.519080000e-02 -4.637230000e-01  7.484576466e-01  6.908550000e-02
 3.399643700e+01  1.669089390e+01 -3.005357200e+01  4.914370000e-01  5.589390000e-02 -3.895720000e-01  6.296036819e-01  6.309820000e-02
 3.452733300e+01  1.438244540e+01 -3.048164200e+01  4.003330000e-01  3.944540000e-02 -3.156420000e-01  5.113240877e-01  5.801720000e-02
 3.497988800e+01  1.203800610e+01 -3.085121500e+01  3.108880000e-01  2.600610000e-02 -2.432150000e-01  3.955770494e-01  5.477430000e-02
 3.535394100e+01  9.664227200e+00 -3.116086100e+01  2.249410000e-01  1.572720000e-02 -1.738610000e-01  2.847339910e-01  5.529690000e-02
 3.564920800e+01  7.268896310e+00 -3.141490200e+01  1.452080000e-01  8.596310000e-03 -1.099020000e-01  1.823121209e-01  6.167560000e-02
 3.586770730e+01  4.857374430e+00 -3.162194420e+01  7.470730000e-02  4.474430000e-03 -5.394420000e-02  9.225604539e-02  7.314900000e-02
 3.602184950e+01  2.428669460e+00 -3.181221500e+01  1.984950000e-02 -2.730540000e-03 -1.121500000e-02  2.296159237e-02  6.529960000e-02
 3.127251000e+01  2.984417300e+01  2.953522580e+01  1.628510000e+00  2.741730000e-01 -2.577420000e-02  1.651629487e+00  1.885150000e-01
 4.567310000e+00  3.594929700e+01  3.563887000e+01  1.993910000e+00 -4.037030000e-01 -5.891300000e-01  2.117953578e+00  2.104450000e-01
 7.145880000e+00  3.598761000e+01  3.557726200e+01  1.995280000e+00 -1.623900000e-01 -3.707380000e-01  2.035917350e+00  2.311830000e-01
 9.716180000e+00  3.590279700e+01  3.543097400e+01  1.998080000e+00  2.979700000e-02 -2.040260000e-01  2.008690657e+00  2.463170000e-01
 1.226624000e+01  3.568752600e+01  3.518012570e+01  1.999240000e+00  1.745260000e-01 -8.287430000e-02  2.008553721e+00  2.550300000e-01
 1.478316000e+01  3.534638100e+01  3.481967186e+01  1.994160000e+00  2.763810000e-01 -1.328140000e-03  2.013221877e+00  2.577510000e-01
 1.725635000e+01  3.488948800e+01  3.435325600e+01  1.979350000e+00  3.414880000e-01  4.725600000e-02  2.009147482e+00  2.553250000e-01
 1.967679000e+01  3.432417000e+01  3.378956820e+01  1.952790000e+00  3.761700000e-01  6.956820000e-02  1.989907633e+00  2.488910000e-01
 2.203488000e+01  3.366049400e+01  3.313795750e+01  1.913880000e+00  3.864940000e-01  7.195750000e-02  1.953840359e+00  2.395940000e-01
 2.431519000e+01  3.290603800e+01  3.241322580e+01  1.863190000e+00  3.780380000e-01  6.022580000e-02  1.902108528e+00  2.285050000e-01
 2.648776000e+01  3.208008800e+01  3.163763790e+01  1.802760000e+00  3.560880000e-01  3.963790000e-02  1.838018891e+00  2.166510000e-01
 2.848117000e+01  3.122634300e+01  3.084808430e+01  1.737170000e+00  3.263430000e-01  1.508430000e-02  1.767621820e+00  2.051080000e-01
 3.016677000e+01  3.044066300e+01  3.011031313e+01  1.674770000e+00  2.956630000e-01 -8.686870000e-03  1.700690044e+00  1.951460000e-01
 3.181523000e+01  3.043606500e+01  2.832605860e+01  1.647230000e+00  2.830650000e-01 -5.594140000e-02  1.672310350e+00  1.866760000e-01
 3.255543000e+01  3.120361300e+01  2.652653300e+01  1.668430000e+00  2.946130000e-01 -1.004670000e-01  1.697218048e+00  1.841490000e-01
 3.336666000e+01  3.201007400e+01  2.440526500e+01  1.686660000e+00  3.050740000e-01 -1.527350000e-01  1.720819596e+00  1.809610000e-01
 3.416604000e+01  3.279317600e+01  2.210934300e+01  1.700040000e+00  3.131760000e-01 -2.086570000e-01  1.741192968e+00  1.772690000e-01
 3.490906000e+01  3.352346800e+01  1.971723800e+01  1.708060000e+00  3.184680000e-01 -2.657620000e-01  1.757703124e+00  1.732460000e-01
 3.557771000e+01  3.418683800e+01  1.726525200e+01  1.710710000e+00  3.208380000e-01 -3.227480000e-01  1.770206767e+00  1.690090000e-01
 3.616813000e+01  3.477628900e+01  1.476918600e+01  1.708130000e+00  3.202890000e-01 -3.788140000e-01  1.778705481e+00  1.646320000e-01
 3.667756000e+01  3.528889700e+01  1.223863000e+01  1.700560000e+00  3.168970000e-01 -4.333700000e-01  1.783294025e+00  1.601630000e-01
 3.710532000e+01  3.572277800e+01  9.681064000e+00  1.688320000e+00  3.107780000e-01 -4.859360000e-01  1.784135977e+00  1.556390000e-01
 3.745180000e+01  3.607805300e+01  7.105275000e+00  1.671800000e+00  3.020530000e-01 -5.361250000e-01  1.781454819e+00  1.510840000e-01
 3.772252000e+01  3.635871900e+01  4.517129000e+00  1.651520000e+00  2.907190000e-01 -5.836710000e-01  1.775586575e+00  1.464980000e-01
 3.793438000e+01  3.658024000e+01  1.923527000e+00  1.628380000e+00  2.762400000e-01 -6.285730000e-01  1.767210791e+00  1.418660000e-01
 3.179077000e+01  2.863132900e+01  3.005922510e+01  1.560770000e+00  2.453290000e-01 -1.477490000e-02  1.580002408e+00  1.842690000e-01
 3.245050000e+01  2.686378000e+01  3.076671374e+01  1.459500000e+00  2.057800000e-01 -3.286260000e-03  1.473939096e+00  1.782960000e-01
 3.312693000e+01  2.479970100e+01  3.153668103e+01  1.337930000e+00  1.617010000e-01  3.681030000e-03  1.347671120e+00  1.718070000e-01
 3.376812000e+01  2.256328800e+01  3.230134765e+01  1.203120000e+00  1.172880000e-01  4.347650000e-03  1.208831300e+00  1.654080000e-01
 3.435575000e+01  2.022145320e+01  3.301973903e+01  1.059750000e+00  7.545320000e-02 -1.260970000e-03  1.062433451e+00  1.596540000e-01
 3.487828100e+01  1.780837100e+01  3.367407800e+01  9.112810000e-01  3.837100000e-02 -1.192200000e-02  9.121663931e-01  1.550200000e-01
 3.533070600e+01  1.534476137e+01  3.425528230e+01  7.607060000e-01  7.761370000e-03 -2.571770000e-02  7.611801741e-01  1.519120000e-01
 3.571195900e+01  1.284303360e+01  3.476278960e+01  6.109590000e-01 -1.496640000e-02 -4.021040000e-02  6.124636880e-01  1.506400000e-01
 3.601920500e+01  1.031237450e+01  3.519850880e+01  4.652050000e-01 -2.862550000e-02 -5.249120000e-02  4.690313821e-01  1.514190000e-01
 3.625179900e+01  7.760411700e+00  3.556771880e+01  3.267990000e-01 -3.228830000e-02 -5.928120000e-02  3.336980392e-01  1.541810000e-01
 3.640462800e+01  5.191081600e+00  3.588541300e+01  1.996280000e-01 -2.561840000e-02 -5.658700000e-02  2.090687193e-01  1.606380000e-01
 3.647848660e+01  2.609976880e+00  3.618438520e+01  8.448660000e-02 -7.023120000e-03 -4.261480000e-02  9.488588395e-02  1.581380000e-01
 2.936585000e+01  2.800651100e+01  2.761223280e+01  1.565850000e+00  3.495110000e-01 -1.976720000e-02  1.604504566e+00  2.168360000e-01
 3.578154000e+01  3.875806900e+01  1.875447000e+00  1.738540000e+00  3.430690000e-01 -6.860530000e-01  1.900233246e+00  1.533070000e-01
 3.349962000e+01  4.079960700e+01  1.856677000e+00  1.839620000e+00  4.096070000e-01 -7.450230000e-01  2.026583063e+00  1.652500000e-01
 3.109082000e+01  4.269288000e+01  1.853012000e+00  1.929820000e+00  4.728800000e-01 -8.057880000e-01  2.144088391e+00  1.774590000e-01
 2.856327000e+01  4.442773300e+01  1.853416000e+00  2.007270000e+00  5.287330000e-01 -8.686840000e-01  2.250178511e+00  1.895600000e-01
 2.592319000e+01  4.599374900e+01  1.850920000e+00  2.070190000e+00  5.717490000e-01 -9.339800000e-01  2.341986805e+00  2.010460000e-01
 2.318018000e+01  4.737711900e+01  1.842440000e+00  2.117180000e+00  5.951190000e-01 -1.001860000e+00  2.416679796e+00  2.112330000e-01
 2.034362000e+01  4.856360000e+01  1.826390000e+00  2.147620000e+00  5.906000000e-01 -1.072410000e+00  2.472072659e+00  2.192400000e-01
 1.742615000e+01  4.954064700e+01  1.802020000e+00  2.162150000e+00  5.486470000e-01 -1.145680000e+00  2.507685948e+00  2.240060000e-01
 1.443919000e+01  5.029377400e+01  1.769380000e+00  2.163190000e+00  4.587740000e-01 -1.221620000e+00  2.526305600e+00  2.243450000e-01
 1.140056000e+01  5.080922800e+01  1.728220000e+00  2.155360000e+00  3.102280000e-01 -1.300280000e+00  2.536246482e+00  2.191120000e-01
 8.327470000e+00  5.108091420e+01  1.679470000e+00  2.145670000e+00  9.291420000e-02 -1.381230000e+00  2.553493511e+00  2.073960000e-01
 5.238260000e+00  5.111949900e+01  1.626050000e+00  2.141560000e+00 -2.015010000e-01 -1.463650000e+00  2.601759637e+00  1.892310000e-01
 3.559313000e+01  3.851459800e+01  4.491027000e+00  1.764130000e+00  3.575980000e-01 -6.363730000e-01  1.909188723e+00  1.582870000e-01
 3.332965000e+01  4.053071400e+01  4.517820000e+00  1.867650000e+00  4.237140000e-01 -6.901800000e-01  2.035681338e+00  1.706260000e-01
 3.093831000e+01  4.240055000e+01  4.575346000e+00  1.960310000e+00  4.855500000e-01 -7.457540000e-01  2.152840711e+00  1.832380000e-01
 2.842703000e+01  4.411337200e+01  4.642641000e+00  2.040030000e+00  5.383720000e-01 -8.038590000e-01  2.257821096e+00  1.956580000e-01
 2.580381000e+01  4.565702400e+01  4.706045000e+00  2.104810000e+00  5.760240000e-01 -8.652550000e-01  2.347486954e+00  2.072730000e-01
 2.307814000e+01  4.701876100e+01  4.758440000e+00  2.153140000e+00  5.907610000e-01 -9.306600000e-01  2.418912660e+00  2.172650000e-01
 2.025838000e+01  4.818421600e+01  4.796110000e+00  2.184380000e+00  5.732160000e-01 -1.000790000e+00  2.470156511e+00  2.245950000e-01
 1.735738000e+01  4.913752800e+01  4.817160000e+00  2.199380000e+00  5.125280000e-01 -1.076340000e+00  2.501692453e+00  2.280300000e-01
 1.439002000e+01  4.986278900e+01  4.820230000e+00  2.201020000e+00  3.967890000e-01 -1.158070000e+00  2.518542570e+00  2.262370000e-01
 1.137304000e+01  5.034769600e+01  4.804640000e+00  2.194740000e+00  2.136960000e-01 -1.246660000e+00  2.533122738e+00  2.179980000e-01
 8.324760000e+00  5.058476910e+01  4.771090000e+00  2.188260000e+00 -4.823090000e-02 -1.342710000e+00  2.567815841e+00  2.025160000e-01
 5.263330000e+00  5.059076400e+01  4.724730000e+00  2.189430000e+00 -3.992360000e-01 -1.444970000e+00  2.653475346e+00  1.804310000e-01
 3.535339000e+01  3.821048000e+01  7.103968000e+00  1.786390000e+00  3.684800000e-01 -5.836320000e-01  1.915096095e+00  1.631390000e-01
 3.311269000e+01  4.019468600e+01  7.176894000e+00  1.891690000e+00  4.336860000e-01 -6.318060000e-01  2.041017742e+00  1.757660000e-01
 3.074099000e+01  4.203160300e+01  7.294926000e+00  1.985990000e+00  4.936030000e-01 -6.816740000e-01  2.156960742e+00  1.886520000e-01
 2.824808000e+01  4.371192400e+01  7.428301000e+00  2.067080000e+00  5.429240000e-01 -7.344990000e-01  2.259883842e+00  2.012400000e-01
 2.564381000e+01  4.522480200e+01  7.556780000e+00  2.132810000e+00  5.748020000e-01 -7.916200000e-01  2.346473537e+00  2.128110000e-01
 2.293657000e+01  4.655664900e+01  7.668983000e+00  2.181570000e+00  5.806490000e-01 -8.544170000e-01  2.413799771e+00  2.224180000e-01
 2.013774000e+01  4.769207700e+01  7.758971000e+00  2.212740000e+00  5.500770000e-01 -9.243290000e-01  2.460322563e+00  2.288710000e-01
 1.725737000e+01  4.861406800e+01  7.823080000e+00  2.227370000e+00  4.710680000e-01 -1.002920000e+00  2.487756158e+00  2.307870000e-01
 1.431286000e+01  4.930642000e+01  7.858880000e+00  2.228860000e+00  3.304200000e-01 -1.091820000e+00  2.503810134e+00  2.267120000e-01
 1.132127000e+01  4.975454200e+01  7.864520000e+00  2.223370000e+00  1.145420000e-01 -1.192780000e+00  2.525711416e+00  2.154820000e-01
 8.301910000e+00  4.995064700e+01  7.840870000e+00  2.219810000e+00 -1.893530000e-01 -1.307130000e+00  2.583021454e+00  1.965950000e-01
 5.273080000e+00  4.991319000e+01  7.793790000e+00  2.226480000e+00 -5.928100000e-01 -1.434910000e+00  2.714332993e+00  1.726830000e-01
 3.504427000e+01  3.782425900e+01  9.706130000e+00  1.804270000e+00  3.762590000e-01 -5.278700000e-01  1.917187473e+00  1.678790000e-01
 3.283062000e+01  3.976905500e+01  9.825008000e+00  1.910620000e+00  4.400550000e-01 -5.699920000e-01  2.041814896e+00  1.807020000e-01
 3.048176000e+01  4.156157200e+01  1.000227500e+01  2.005760000e+00  4.975720000e-01 -6.137250000e-01  2.155761918e+00  1.937520000e-01
 2.801142000e+01  4.319899400e+01  1.020111800e+01  2.087420000e+00  5.429940000e-01 -6.608820000e-01  2.255865634e+00  2.063900000e-01
 2.542936000e+01  4.466989700e+01  1.039253000e+01  2.153360000e+00  5.688970000e-01 -7.134700000e-01  2.338726689e+00  2.177980000e-01
 2.274591000e+01  4.596199700e+01  1.056338900e+01  2.201910000e+00  5.659970000e-01 -7.736110000e-01  2.401506659e+00  2.269090000e-01
 1.997151000e+01  4.705910200e+01  1.070338800e+01  2.232510000e+00  5.231020000e-01 -8.436120000e-01  2.443239204e+00  2.324020000e-01
 1.711844000e+01  4.794325600e+01  1.080802400e+01  2.246440000e+00  4.272560000e-01 -9.259760000e-01  2.467077606e+00  2.327740000e-01
 1.420252000e+01  4.859829400e+01  1.087358000e+01  2.247520000e+00  2.642940000e-01 -1.023420000e+00  2.483663819e+00  2.265140000e-01
 1.124175000e+01  4.900758170e+01  1.089630000e+01  2.242750000e+00  1.958170000e-02 -1.138700000e+00  2.515342660e+00  2.125900000e-01
 8.257280000e+00  4.916347200e+01  1.087765000e+01  2.241880000e+00 -3.205280000e-01 -1.274350000e+00  2.598601943e+00  1.911060000e-01
 5.267540000e+00  4.908030300e+01  1.082441000e+01  2.254440000e+00 -7.686970000e-01 -1.431590000e+00  2.779000669e+00  1.677760000e-01
 3.466012000e+01  3.734997000e+01  1.228958500e+01  1.817120000e+00  3.809700000e-01 -4.694150000e-01  1.915049262e+00  1.725070000e-01
 3.247671000e+01  3.924487500e+01  1.245385300e+01  1.923710000e+00  4.428750000e-01 -5.051470000e-01  2.037638810e+00  1.854400000e-01
 3.015488000e+01  4.098356900e+01  1.268960200e+01  2.018880000e+00  4.975690000e-01 -5.423980000e-01  2.148871088e+00  1.985640000e-01
 2.771134000e+01  4.256583800e+01  1.295042500e+01  2.100340000e+00  5.388380000e-01 -5.835750000e-01  2.245514259e+00  2.111650000e-01
 2.515584000e+01  4.398484200e+01  1.320460500e+01  2.165840000e+00  5.588420000e-01 -6.313950000e-01  2.324183068e+00  2.223380000e-01
 2.250070000e+01  4.522783000e+01  1.343120100e+01  2.213700000e+00  5.478300000e-01 -6.887990000e-01  2.382232033e+00  2.309150000e-01
 1.975646000e+01  4.627907300e+01  1.361900000e+01  2.243460000e+00  4.940730000e-01 -7.590000000e-01  2.419359812e+00  2.354720000e-01
 1.693661000e+01  4.712004600e+01  1.376145800e+01  2.256610000e+00  3.840460000e-01 -8.455420000e-01  2.440229763e+00  2.344300000e-01
 1.405538000e+01  4.773497300e+01  1.385379900e+01  2.257380000e+00  2.029730000e-01 -9.522010000e-01  2.458383462e+00  2.262650000e-01
 1.113362000e+01  4.810565820e+01  1.389109000e+01  2.253320000e+00 -6.434180000e-02 -1.082910000e+00  2.500856845e+00  2.101640000e-01
 8.190720000e+00  4.822393700e+01  1.387379000e+01  2.255120000e+00 -4.320630000e-01 -1.241210000e+00  2.610143083e+00  1.870310000e-01
 5.245920000e+00  4.810158400e+01  1.380913000e+01  2.272920000e+00 -9.134160000e-01 -1.429870000e+00  2.836374858e+00  1.662940000e-01
 3.419748000e+01  3.678753000e+01  1.484627300e+01  1.824480000e+00  3.825300000e-01 -4.087270000e-01  1.908432402e+00  1.770000000e-01
 3.205046000e+01  3.862111000e+01  1.505418500e+01  1.930460000e+00  4.421100000e-01 -4.378150000e-01  2.028255171e+00  1.899590000e-01
 2.975981000e+01  4.029465400e+01  1.534568100e+01  2.024810000e+00  4.936540000e-01 -4.683190000e-01  2.136088129e+00  2.030740000e-01
 2.734531000e+01  4.181169900e+01  1.566775400e+01  2.105310000e+00  5.306990000e-01 -5.032460000e-01  2.228727924e+00  2.155710000e-01
 2.482176000e+01  4.316819900e+01  1.598096000e+01  2.169760000e+00  5.451990000e-01 -5.460400000e-01  2.302880824e+00  2.264720000e-01
 2.220056000e+01  4.435320200e+01  1.626054200e+01  2.216560000e+00  5.272020000e-01 -6.004580000e-01  2.356189719e+00  2.345370000e-01
 1.949334000e+01  4.535180000e+01  1.649436600e+01  2.245340000e+00  4.648000000e-01 -6.706340000e-01  2.389004127e+00  2.382750000e-01
 1.671280000e+01  4.614629500e+01  1.667289300e+01  2.257800000e+00  3.442950000e-01 -7.611070000e-01  2.407381098e+00  2.360670000e-01
 1.387443000e+01  4.671879700e+01  1.678927300e+01  2.258430000e+00  1.507970000e-01 -8.767270000e-01  2.427322812e+00  2.264280000e-01
 1.099682000e+01  4.705400000e+01  1.683856000e+01  2.255220000e+00 -1.310000000e-01 -1.022440000e+00  2.479629368e+00  2.087940000e-01
 8.101680000e+00  4.714077100e+01  1.682217000e+01  2.259280000e+00 -5.152290000e-01 -1.202830000e+00  2.610863277e+00  1.849100000e-01
 5.207580000e+00  4.699082000e+01  1.674708000e+01  2.281280000e+00 -1.015180000e+00 -1.421920000e+00  2.873444859e+00  1.675150000e-01
 3.365894000e+01  3.613784200e+01  1.736863500e+01  1.825940000e+00  3.808420000e-01 -3.463650000e-01  1.897120509e+00  1.813120000e-01
 3.155242000e+01  3.789971900e+01  1.761834900e+01  1.930420000e+00  4.377190000e-01 -3.686510000e-01  2.013460419e+00  1.942130000e-01
 2.929609000e+01  3.949689400e+01  1.796278000e+01  2.023090000e+00  4.858940000e-01 -3.922200000e-01  2.117267734e+00  2.072450000e-01
 2.691588000e+01  4.093883200e+01  1.834234100e+01  2.101880000e+00  5.188320000e-01 -4.206590000e-01  2.205456908e+00  2.195850000e-01
 2.442772000e+01  4.222251300e+01  1.871090000e+01  2.164720000e+00  5.285130000e-01 -4.581000000e-01  2.274905334e+00  2.302100000e-01
 2.184613000e+01  4.334209900e+01  1.904193400e+01  2.210130000e+00  5.050990000e-01 -5.090660000e-01  2.323563601e+00  2.378360000e-01
 1.918089000e+01  4.428187600e+01  1.931847600e+01  2.237890000e+00  4.368760000e-01 -5.785240000e-01  2.352382263e+00  2.409440000e-01
 1.644680000e+01  4.502643900e+01  1.953108000e+01  2.249800000e+00  3.104390000e-01 -6.719200000e-01  2.368427516e+00  2.379220000e-01
 1.365754000e+01  4.555726400e+01  1.967098800e+01  2.250540000e+00  1.112640000e-01 -7.950120000e-01  2.389425464e+00  2.273490000e-01
 1.083157000e+01  4.586049400e+01  1.973334400e+01  2.248170000e+00 -1.755060000e-01 -9.536560000e-01  2.448373025e+00  2.088900000e-01
 7.990220000e+00  4.592451200e+01  1.971782000e+01  2.253920000e+00 -5.634880000e-01 -1.153180000e+00  2.593742124e+00  1.849180000e-01
 5.151520000e+00  4.575762000e+01  1.963422000e+01  2.278420000e+00 -1.065380000e+00 -1.398780000e+00  2.877988487e+00  1.700640000e-01
 3.304616000e+01  3.540283900e+01  1.984699900e+01  1.821160000e+00  3.758390000e-01 -2.830010000e-01  1.880948767e+00  1.853790000e-01
 3.098420000e+01  3.708268100e+01  2.013659200e+01  1.923200000e+00  4.296810000e-01 -2.984080000e-01  1.993080865e+00  1.981310000e-01
 2.876633000e+01  3.859337200e+01  2.053207200e+01  2.013330000e+00  4.743720000e-01 -3.149280000e-01  2.092296855e+00  2.110060000e-01
 2.642367000e+01  3.994849300e+01  2.096434200e+01  2.089670000e+00  5.034930000e-01 -3.366580000e-01  2.175675647e+00  2.231510000e-01
 2.397637000e+01  4.115229200e+01  2.138566800e+01  2.150370000e+00  5.092920000e-01 -3.683320000e-01  2.240343264e+00  2.335220000e-01
 2.143910000e+01  4.219735400e+01  2.176388200e+01  2.194100000e+00  4.823540000e-01 -4.151180000e-01  2.284526897e+00  2.408240000e-01
 1.882281000e+01  4.307355000e+01  2.208133400e+01  2.220810000e+00  4.115500000e-01 -4.826660000e-01  2.309618351e+00  2.435550000e-01
 1.614036000e+01  4.376520500e+01  2.232586700e+01  2.232360000e+00  2.842050000e-01 -5.771330000e-01  2.323206007e+00  2.401460000e-01
 1.340638000e+01  4.425666600e+01  2.249001300e+01  2.233380000e+00  8.666600000e-02 -7.049870000e-01  2.343609159e+00  2.292570000e-01
 1.063876000e+01  4.453201300e+01  2.256628100e+01  2.231760000e+00 -1.949870000e-01 -8.727190000e-01  2.404248548e+00  2.106960000e-01
 7.856540000e+00  4.458165900e+01  2.255579000e+01  2.238340000e+00 -5.733410000e-01 -1.086210000e+00  2.553181941e+00  1.870320000e-01
 5.077100000e+00  4.441306000e+01  2.246861000e+01  2.263300000e+00 -1.059940000e+00 -1.351390000e+00  2.841171347e+00  1.729060000e-01
 3.236776000e+01  3.458443600e+01  2.226650500e+01  1.809760000e+00  3.674360000e-01 -2.194950000e-01  1.859682373e+00  1.890920000e-01
 3.035531000e+01  3.616992300e+01  2.259598700e+01  1.908310000e+00  4.179230000e-01 -2.280130000e-01  1.966798571e+00  2.015770000e-01
 2.818199000e+01  3.758313200e+01  2.303859500e+01  1.994990000e+00  4.591320000e-01 -2.374050000e-01  2.060861089e+00  2.142160000e-01
 2.588120000e+01  3.884290600e+01  2.352181400e+01  2.068200000e+00  4.849060000e-01 -2.521860000e-01  2.139201451e+00  2.261450000e-01
 2.347927000e+01  3.995799400e+01  2.399144300e+01  2.126270000e+00  4.879940000e-01 -2.775570000e-01  2.199136227e+00  2.363110000e-01
 2.099010000e+01  4.092467500e+01  2.441384800e+01  2.168100000e+00  4.596750000e-01 -3.191520000e-01  2.239155357e+00  2.434480000e-01
 1.842674000e+01  4.173274200e+01  2.477090800e+01  2.193740000e+00  3.897420000e-01 -3.830920000e-01  2.260786035e+00  2.461080000e-01
 1.580206000e+01  4.237064100e+01  2.504800500e+01  2.205060000e+00  2.666410000e-01 -4.759950000e-01  2.271554152e+00  2.427980000e-01
 1.312846000e+01  4.282299680e+01  2.523623800e+01  2.206460000e+00  7.799680000e-02 -6.047620000e-01  2.289167165e+00  2.322540000e-01
 1.042274000e+01  4.307526000e+01  2.533074700e+01  2.205340000e+00 -1.887400000e-01 -7.762530000e-01  2.345573709e+00  2.143140000e-01
 7.703080000e+00  4.311826900e+01  2.533041000e+01  2.211780000e+00 -5.447310000e-01 -9.965900000e-01  2.486341541e+00  1.912530000e-01
 4.985300000e+00  4.296012500e+01  2.524884000e+01  2.235000000e+00 -9.998750000e-01 -1.272160000e+00  2.759232879e+00  1.758730000e-01
 3.165102000e+01  3.368444100e+01  2.459372000e+01  1.791020000e+00  3.554410000e-01 -1.572800000e-01  1.832710545e+00  1.922550000e-01
 2.970361000e+01  3.515417900e+01  2.496614500e+01  1.884610000e+00  4.021790000e-01 -1.588550000e-01  1.933581576e+00  2.043090000e-01
 2.758096000e+01  3.645801100e+01  2.545804300e+01  1.966960000e+00  4.400110000e-01 -1.609570000e-01  2.021991216e+00  2.166410000e-01
 2.532647000e+01  3.761620500e+01  2.599058600e+01  2.036470000e+00  4.632050000e-01 -1.684140000e-01  2.095264234e+00  2.283500000e-01
 2.297062000e+01  3.863808000e+01  2.650830000e+01  2.091620000e+00  4.650800000e-01 -1.867000000e-01  2.150820895e+00  2.384030000e-01
 2.053147000e+01  3.952181300e+01  2.697528200e+01  2.131470000e+00  4.378130000e-01 -2.217180000e-01  2.187236488e+00  2.455910000e-01
 1.802311000e+01  4.026133600e+01  2.737119300e+01  2.156110000e+00  3.723360000e-01 -2.798070000e-01  2.205841424e+00  2.485460000e-01
 1.545533000e+01  4.084447500e+01  2.768321600e+01  2.167330000e+00  2.584750000e-01 -3.677840000e-01  2.213457414e+00  2.458650000e-01
 1.284215000e+01  4.126038780e+01  2.790029300e+01  2.169150000e+00  8.538780000e-02 -4.927070000e-01  2.226042000e+00  2.363510000e-01
 1.019856000e+01  4.149416000e+01  2.801645700e+01  2.168260000e+00 -1.578400000e-01 -6.615430000e-01  2.272422503e+00  2.197550000e-01
 7.540210000e+00  4.153828300e+01  2.803457600e+01  2.173610000e+00 -4.807170000e-01 -8.804240000e-01  2.393912214e+00  1.977010000e-01
 4.881170000e+00  4.139782600e+01  2.796812000e+01  2.193070000e+00 -8.911740000e-01 -1.155880000e+00  2.634351096e+00  1.798180000e-01
 3.096762000e+01  3.270352900e+01  2.675406840e+01  1.763620000e+00  3.395290000e-01 -9.893160000e-02  1.798728136e+00  1.945810000e-01
 2.910905000e+01  3.401879600e+01  2.718673780e+01  1.850050000e+00  3.817960000e-01 -9.326220000e-02  1.891335778e+00  2.060180000e-01
 2.704711000e+01  3.519562700e+01  2.773939090e+01  1.927110000e+00  4.166270000e-01 -8.760910000e-02  1.973577048e+00  2.179880000e-01
 2.483878000e+01  3.624536100e+01  2.833102910e+01  1.992780000e+00  4.383610000e-01 -8.697090000e-02  2.042277266e+00  2.295430000e-01
 2.252622000e+01  3.717395400e+01  2.890305650e+01  2.045220000e+00  4.409540000e-01 -9.694350000e-02  2.094460150e+00  2.396680000e-01
 2.013142000e+01  3.797846700e+01  2.941955300e+01  2.083420000e+00  4.174670000e-01 -1.234470000e-01  2.128416490e+00  2.472060000e-01
 1.766945000e+01  3.865205300e+01  2.986017300e+01  2.107450000e+00  3.600530000e-01 -1.728270000e-01  2.144959868e+00  2.508820000e-01
 1.515087000e+01  3.918496600e+01  3.021213300e+01  2.118870000e+00  2.599660000e-01 -2.518670000e-01  2.149564929e+00  2.493930000e-01
 1.258921000e+01  3.956695600e+01  3.046441700e+01  2.121210000e+00  1.079560000e-01 -3.675830000e-01  2.155528618e+00  2.415810000e-01
 9.996180000e+00  3.978676200e+01  3.061115100e+01  2.120280000e+00 -1.052380000e-01 -5.268490000e-01  2.187288775e+00  2.270250000e-01
 7.387390000e+00  3.983658600e+01  3.065727500e+01  2.123690000e+00 -3.874140000e-01 -7.357250000e-01  2.280666591e+00  2.065660000e-01
 4.774510000e+00  3.972153600e+01  3.061832000e+01  2.137710000e+00 -7.444640000e-01 -1.000680000e+00  2.474952758e+00  1.862900000e-01
 3.043616000e+01  3.164018500e+01  2.863678930e+01  1.726160000e+00  3.191850000e-01 -4.821070000e-02  1.756084190e+00  1.957580000e-01
 2.868892000e+01  3.273511400e+01  2.917544090e+01  1.801920000e+00  3.561140000e-01 -3.455910000e-02  1.837097493e+00  2.063870000e-01
 2.668498000e+01  3.375921500e+01  2.982291580e+01  1.872980000e+00  3.882150000e-01 -2.008420000e-02  1.912895277e+00  2.180590000e-01
 2.451423000e+01  3.469981800e+01  3.049487490e+01  1.935230000e+00  4.098180000e-01 -1.012510000e-02  1.978173012e+00  2.296720000e-01
 2.223079000e+01  3.554011200e+01  3.113593770e+01  1.985790000e+00  4.151120000e-01 -1.006230000e-02  2.028738807e+00  2.401650000e-01
 1.986426000e+01  3.627198300e+01  3.171435730e+01  2.023260000e+00  3.979830000e-01 -2.564270000e-02  2.062190351e+00  2.484380000e-01
 1.743046000e+01  3.688869800e+01  3.221098670e+01  2.047460000e+00  3.516980000e-01 -6.301330000e-02  2.078401937e+00  2.533180000e-01
 1.494163000e+01  3.737884700e+01  3.261220400e+01  2.059630000e+00  2.688470000e-01 -1.287960000e-01  2.081091746e+00  2.535860000e-01
 1.240973000e+01  3.773461900e+01  3.291016100e+01  2.062730000e+00  1.416190000e-01 -2.298390000e-01  2.080321360e+00  2.480960000e-01
 9.846060000e+00  3.794531200e+01  3.309909400e+01  2.061560000e+00 -3.768800000e-02 -3.729060000e-01  2.095354124e+00  2.362070000e-01
 7.263830000e+00  3.800467900e+01  3.318407200e+01  2.062330000e+00 -2.753210000e-01 -5.639280000e-01  2.155695125e+00  2.180410000e-01
 4.674420000e+00  3.791896000e+01  3.318474100e+01  2.069820000e+00 -5.750400000e-01 -8.092590000e-01  2.295588370e+00  1.966200000e-01
 4.494570000e+00  3.386627700e+01  3.798952500e+01  1.900670000e+00 -2.397230000e-01 -3.544750000e-01  1.948246928e+00  2.259560000e-01
 4.437990000e+00  3.163745500e+01  4.019746100e+01  1.795990000e+00 -1.015450000e-01 -1.215390000e-01  1.802959566e+00  2.411650000e-01
 4.385620000e+00  2.926169692e+01  4.223767960e+01  1.680320000e+00  1.696920000e-03  9.267960000e-02  1.682874829e+00  2.541440000e-01
 4.329250000e+00  2.674606140e+01  4.409234000e+01  1.553850000e+00  6.706140000e-02  2.733400000e-01  1.579133246e+00  2.633390000e-01
 4.264440000e+00  2.410307410e+01  4.574519900e+01  1.416640000e+00  9.707410000e-02  4.091990000e-01  1.477746965e+00  2.678990000e-01
 4.190640000e+00  2.135017270e+01  4.718235600e+01  1.269240000e+00  9.817270000e-02  4.933560000e-01  1.365286856e+00  2.678810000e-01
 4.110720000e+00  1.851017060e+01  4.839866800e+01  1.112520000e+00  7.917060000e-02  5.236680000e-01  1.232151333e+00  2.642190000e-01
 4.031116000e+00  1.560583110e+01  4.939067000e+01  9.477160000e-01  4.983110000e-02  5.026700000e-01  1.073930111e+00  2.586590000e-01
 3.961164000e+00  1.266067820e+01  5.016268000e+01  7.762640000e-01  1.967820000e-02  4.376800000e-01  8.913679440e-01  2.536150000e-01
 3.905551000e+00  9.682590770e+00  5.072691500e+01  5.986510000e-01 -3.109230000e-03  3.389150000e-01  6.879360903e-01  2.516830000e-01
 3.840041000e+00  6.637211500e+00  5.110828800e+01  4.130410000e-01 -1.208850000e-02  2.212880000e-01  4.687402036e-01  2.577030000e-01
 3.654011000e+00  3.437199944e+00  5.134698180e+01  2.128110000e-01  4.999440000e-04  9.098180000e-02  2.314442905e-01  2.629810000e-01
 7.105760000e+00  3.387784270e+01  3.786979000e+01  1.908460000e+00 -5.215730000e-02 -1.692100000e-01  1.916656458e+00  2.440720000e-01
 7.104650000e+00  3.162797510e+01  4.001239880e+01  1.809350000e+00  3.797510000e-02  2.639880000e-02  1.809941001e+00  2.552760000e-01
 7.120810000e+00  2.923926800e+01  4.198732600e+01  1.697910000e+00  1.002680000e-01  2.013260000e-01  1.712741720e+00  2.636160000e-01
 7.137990000e+00  2.671975700e+01  4.377919300e+01  1.573990000e+00  1.327570000e-01  3.431930000e-01  1.616431371e+00  2.681330000e-01
 7.147950000e+00  2.408408100e+01  4.537541900e+01  1.437850000e+00  1.380810000e-01  4.434190000e-01  1.510992851e+00  2.685440000e-01
 7.148890000e+00  2.135001500e+01  4.676539300e+01  1.290190000e+00  1.220150000e-01  4.973930000e-01  1.388120201e+00  2.652540000e-01
 7.144790000e+00  1.853612490e+01  4.794561300e+01  1.132190000e+00  9.212490000e-02  5.046130000e-01  1.242970423e+00  2.593180000e-01
 7.144771000e+00  1.566553170e+01  4.891357900e+01  9.653710000e-01  5.653170000e-02  4.685790000e-01  1.074571207e+00  2.523790000e-01
 7.159510000e+00  1.275301060e+01  4.967354400e+01  7.912100000e-01  2.301060000e-02  3.965440000e-01  8.853190926e-01  2.464950000e-01
 7.185223000e+00  9.789557460e+00  5.023920000e+01  6.099230000e-01 -1.842540000e-03  2.982000000e-01  6.789202463e-01  2.437620000e-01
 7.160567000e+00  6.715837500e+00  5.064570900e+01  4.184670000e-01 -1.266250000e-02  1.867090000e-01  4.584050825e-01  2.488490000e-01
 6.908921000e+00  3.450102466e+00  5.094782140e+01  2.119210000e-01  5.024660000e-04  6.982140000e-02  2.231272969e-01  2.535330000e-01
 9.708270000e+00  3.377994990e+01  3.766178470e+01  1.914170000e+00  9.694990000e-02 -3.221530000e-02  1.916894337e+00  2.553850000e-01
 9.759950000e+00  3.151706500e+01  3.973739200e+01  1.817450000e+00  1.480650000e-01  1.303920000e-01  1.828127408e+00  2.622550000e-01
 9.840550000e+00  2.911908800e+01  4.164410500e+01  1.707350000e+00  1.770880000e-01  2.711050000e-01  1.737786553e+00  2.662600000e-01
 9.926860000e+00  2.659588200e+01  4.337093300e+01  1.583560000e+00  1.828820000e-01  3.799330000e-01  1.638736460e+00  2.668250000e-01
 1.000621000e+01  2.396419400e+01  4.490948300e+01  1.446410000e+00  1.681940000e-01  4.504830000e-01  1.524246057e+00  2.639660000e-01
 1.007477000e+01  2.123824100e+01  4.625097800e+01  1.296770000e+00  1.382410000e-01  4.799780000e-01  1.389640920e+00  2.582900000e-01
 1.013521000e+01  1.843755610e+01  4.739317100e+01  1.136010000e+00  9.955610000e-02  4.691710000e-01  1.233106469e+00  2.508980000e-01
 1.019505400e+01  1.557798860e+01  4.833513900e+01  9.657540000e-01  5.898860000e-02  4.221390000e-01  1.055633354e+00  2.433210000e-01
 1.026080500e+01  1.266801680e+01  4.908109200e+01  7.876050000e-01  2.301680000e-02  3.460920000e-01  8.605992572e-01  2.373580000e-01
 1.031759000e+01  9.694637500e+00  4.964730000e+01  6.018900000e-01 -2.762500000e-03  2.503000000e-01  6.518660089e-01  2.347890000e-01
 1.028591600e+01  6.604250100e+00  5.006972300e+01  4.073160000e-01 -1.344990000e-02  1.477230000e-01  4.334850729e-01  2.398810000e-01
 9.991762000e+00  3.357362850e+00  5.041417850e+01  2.021620000e-01 -9.371500000e-04  4.817850000e-02  2.078256971e-01  2.440340000e-01
 1.228766000e+01  3.356369600e+01  3.734552990e+01  1.915660000e+00  2.076960000e-01  6.252990000e-02  1.927900633e+00  2.605180000e-01
 1.238779000e+01  3.129696500e+01  3.934814800e+01  1.818790000e+00  2.279650000e-01  1.961480000e-01  1.843485596e+00  2.636480000e-01
 1.252771000e+01  2.889578900e+01  4.118141200e+01  1.707710000e+00  2.307890000e-01  3.074120000e-01  1.750439700e+00  2.641050000e-01
 1.267613000e+01  2.637384000e+01  4.283948800e+01  1.582130000e+00  2.158400000e-01  3.884880000e-01  1.643363979e+00  2.615960000e-01
 1.281750000e+01  2.374691000e+01  4.431691400e+01  1.442500000e+00  1.859100000e-01  4.349140000e-01  1.518064217e+00  2.563580000e-01
 1.294390000e+01  2.103072600e+01  4.560738700e+01  1.289900000e+00  1.457260000e-01  4.453870000e-01  1.372387575e+00  2.491060000e-01
 1.305586000e+01  1.823993600e+01  4.671059800e+01  1.125860000e+00  1.009360000e-01  4.215980000e-01  1.206438432e+00  2.409440000e-01
 1.315721200e+01  1.538836120e+01  4.762401200e+01  9.522120000e-01  5.736120000e-02  3.680120000e-01  1.022463120e+00  2.332760000e-01
 1.324876200e+01  1.248146880e+01  4.835569100e+01  7.707620000e-01  2.046880000e-02  2.916910000e-01  8.243644048e-01  2.276620000e-01
 1.331174900e+01  9.507848220e+00  4.891871300e+01  5.827490000e-01 -4.851780000e-03  2.017130000e-01  6.166912284e-01  2.255990000e-01
 1.326674800e+01  6.433251400e+00  4.935271000e+01  3.887480000e-01 -1.474860000e-02  1.107100000e-01  4.044740199e-01  2.309990000e-01
 1.297144300e+01  3.250081510e+00  4.972318030e+01  1.894430000e-01 -1.918490000e-03  2.918030000e-02  1.916867777e-01  2.344800000e-01
 1.483039000e+01  3.323458300e+01  3.691389500e+01  1.909390000e+00  2.835830000e-01  1.208950000e-01  1.934116101e+00  2.602390000e-01
 1.497474000e+01  3.097327000e+01  3.883850000e+01  1.810740000e+00  2.802700000e-01  2.295000000e-01  1.846618767e+00  2.603600000e-01
 1.516730000e+01  2.857732800e+01  4.059292600e+01  1.697300000e+00  2.633280000e-01  3.159260000e-01  1.746418668e+00  2.580810000e-01
 1.537294000e+01  2.606509400e+01  4.217734800e+01  1.568940000e+00  2.330940000e-01  3.743480000e-01  1.629736777e+00  2.533400000e-01
 1.556832000e+01  2.344939000e+01  4.358890900e+01  1.426320000e+00  1.923900000e-01  4.019090000e-01  1.494300338e+00  2.465310000e-01
 1.574476000e+01  2.074746700e+01  4.482448400e+01  1.270760000e+00  1.454670000e-01  3.984840000e-01  1.339694414e+00  2.384280000e-01
 1.589800000e+01  1.797322060e+01  4.588442800e+01  1.104000000e+00  9.722060000e-02  3.664280000e-01  1.167277741e+00  2.300910000e-01
 1.602909400e+01  1.513759920e+01  4.676939200e+01  9.280940000e-01  5.259920000e-02  3.103920000e-01  9.800348679e-01  2.227770000e-01
 1.613728200e+01  1.224526710e+01  4.748320600e+01  7.452820000e-01  1.626710000e-02  2.372060000e-01  7.822893100e-01  2.178140000e-01
 1.620060700e+01  9.291220250e+00  4.804161600e+01  5.576070000e-01 -7.679750000e-03  1.556160000e-01  5.789653569e-01  2.164520000e-01
 1.615230100e+01  6.257238700e+00  4.848157420e+01  3.673010000e-01 -1.606130000e-02  7.757420000e-02  3.757469181e-01  2.221940000e-01
 1.588415400e+01  3.151058820e+00  4.886689110e+01  1.761540000e-01 -2.841180000e-03  1.289110000e-02  1.766479111e-01  2.248630000e-01
 1.732671000e+01  3.280057600e+01  3.637038000e+01  1.892710000e+00  3.295760000e-01  1.493800000e-01  1.926988809e+00  2.555130000e-01
 1.751055000e+01  3.055498400e+01  3.821073700e+01  1.791550000e+00  3.089840000e-01  2.367370000e-01  1.833348554e+00  2.534020000e-01
 1.775121000e+01  2.817486600e+01  3.987967900e+01  1.675210000e+00  2.778660000e-01  3.026790000e-01  1.724863077e+00  2.491800000e-01
 1.800687000e+01  2.567912700e+01  4.138412200e+01  1.543870000e+00  2.371270000e-01  3.431220000e-01  1.599217464e+00  2.429790000e-01
 1.825053000e+01  2.308454800e+01  4.272555900e+01  1.398530000e+00  1.895480000e-01  3.565590000e-01  1.455660993e+00  2.353030000e-01
 1.847072000e+01  2.040595200e+01  4.390274100e+01  1.240720000e+00  1.389520000e-01  3.437410000e-01  1.294933068e+00  2.269420000e-01
 1.865943000e+01  1.765756490e+01  4.491544700e+01  1.072430000e+00  8.956490000e-02  3.074470000e-01  1.119219207e+00  2.188830000e-01
 1.881696600e+01  1.484860160e+01  4.576632900e+01  8.959660000e-01  4.560160000e-02  2.523290000e-01  9.319358901e-01  2.122220000e-01
 1.893892900e+01  1.198597460e+01  4.645988100e+01  7.139290000e-01  1.097460000e-02  1.848810000e-01  7.375608741e-01  2.080840000e-01
 1.900707000e+01  9.068357500e+00  4.700931000e+01  5.290700000e-01 -1.084250000e-02  1.133100000e-01  5.411762936e-01  2.074660000e-01
 1.896764100e+01  6.089369700e+00  4.745054240e+01  3.446410000e-01 -1.743030000e-02  4.854240000e-02  3.484789790e-01  2.134520000e-01
 1.873988300e+01  3.062090210e+00  4.784320482e+01  1.628830000e-01 -3.609790000e-03 -7.951760000e-04  1.629249354e-01  2.152940000e-01
 1.976728000e+01  3.226892600e+01  3.572245700e+01  1.864280000e+00  3.509260000e-01  1.544570000e-01  1.903298700e+00  2.474420000e-01
 1.998556000e+01  3.005039200e+01  3.747007800e+01  1.760560000e+00  3.183920000e-01  2.240780000e-01  1.803096206e+00  2.437980000e-01
 2.026942000e+01  2.769483800e+01  3.904849800e+01  1.641420000e+00  2.778380000e-01  2.734980000e-01  1.687084683e+00  2.383260000e-01
 2.057053000e+01  2.522560500e+01  4.046713000e+01  1.507530000e+00  2.306050000e-01  3.001300000e-01  1.554317659e+00  2.313120000e-01
 2.085923000e+01  2.266041200e+01  4.173152800e+01  1.360230000e+00  1.794120000e-01  3.035280000e-01  1.405184531e+00  2.233330000e-01
 2.111831000e+01  2.001467300e+01  4.284407200e+01  1.201310000e+00  1.276730000e-01  2.850720000e-01  1.241254267e+00  2.151600000e-01
 2.133996000e+01  1.730203390e+01  4.380575400e+01  1.032960000e+00  7.903390000e-02  2.477540000e-01  1.065192360e+00  2.076900000e-01
 2.152270800e+01  1.453204900e+01  4.461808500e+01  8.577080000e-01  3.704900000e-02  1.960850000e-01  8.806162438e-01  2.018670000e-01
 2.166146200e+01  1.171201156e+01  4.528611200e+01  6.784620000e-01  5.011560000e-03  1.361120000e-01  6.919987556e-01  1.986220000e-01
 2.174041300e+01  8.843981900e+00  4.582233650e+01  4.984130000e-01 -1.421810000e-02  7.533650000e-02  5.042749857e-01  1.987070000e-01
 2.171841900e+01  5.928525500e+00  4.625850090e+01  3.214190000e-01 -1.877450000e-02  2.350090000e-02  3.228234002e-01  2.048430000e-01
 2.153575700e+01  2.979503980e+00  4.665090050e+01  1.497570000e-01 -4.296020000e-03 -1.209950000e-02  1.503063962e-01  2.059030000e-01
 2.214296000e+01  3.165067700e+01  3.497820400e+01  1.823960000e+00  3.526770000e-01  1.422040000e-01  1.863178232e+00  2.370760000e-01
 2.239410000e+01  2.946862100e+01  3.662623100e+01  1.718100000e+00  3.126210000e-01  1.972310000e-01  1.757412748e+00  2.324850000e-01
 2.271775000e+01  2.714651500e+01  3.810562700e+01  1.596750000e+00  2.665150000e-01  2.336270000e-01  1.635610706e+00  2.263270000e-01
 2.306011000e+01  2.471205100e+01  3.943202400e+01  1.461110000e+00  2.160510000e-01  2.500240000e-01  1.498009502e+00  2.190110000e-01
 2.338889000e+01  2.218485000e+01  4.061477800e+01  1.312890000e+00  1.638500000e-01  2.467780000e-01  1.345892401e+00  2.111490000e-01
 2.368415000e+01  1.958196000e+01  4.165667200e+01  1.154150000e+00  1.129600000e-01  2.256720000e-01  1.181418654e+00  2.034730000e-01
 2.393824100e+01  1.691350530e+01  4.255975600e+01  9.872410000e-01  6.650530000e-02  1.897560000e-01  1.007509348e+00  1.967840000e-01
 2.414687000e+01  1.419248570e+01  4.332828700e+01  8.148700000e-01  2.748570000e-02  1.432870000e-01  8.278283306e-01  1.918860000e-01
 2.430412600e+01  1.142563688e+01  4.396477610e+01  6.401260000e-01 -1.363120000e-03  9.177610000e-02  6.466730291e-01  1.895300000e-01
 2.439946200e+01  8.617013800e+00  4.448192780e+01  4.664620000e-01 -1.768620000e-02  4.192780000e-02  4.686763697e-01  1.902490000e-01
 2.439999600e+01  5.770901200e+00  4.490726310e+01  2.979960000e-01 -2.009880000e-02  2.263100000e-03  2.986816020e-01  1.964710000e-01
 2.426286200e+01  2.899905320e+00  4.529377700e+01  1.368620000e-01 -4.894680000e-03 -2.122300000e-02  1.385842006e-01  1.968080000e-01
 2.444271000e+01  3.095550600e+01  3.414904200e+01  1.772710000e+00  3.395060000e-01  1.180420000e-01  1.808783841e+00  2.253750000e-01
 2.472454000e+01  2.882151500e+01  3.568719600e+01  1.665540000e+00  2.955150000e-01  1.611960000e-01  1.699216513e+00  2.202950000e-01
 2.508489000e+01  2.654296700e+01  3.705856500e+01  1.542890000e+00  2.469670000e-01  1.875650000e-01  1.573748036e+00  2.138850000e-01
 2.546753000e+01  2.415182500e+01  3.828571300e+01  1.406530000e+00  1.958250000e-01  1.967130000e-01  1.433656192e+00  2.066410000e-01
 2.583355000e+01  2.167060100e+01  3.937856000e+01  1.258550000e+00  1.446010000e-01  1.895600000e-01  1.280933466e+00  1.991760000e-01
 2.616526000e+01  1.911701680e+01  4.034410600e+01  1.101260000e+00  9.601680000e-02  1.681060000e-01  1.118146878e+00  1.921780000e-01
 2.645017300e+01  1.650176250e+01  4.118431900e+01  9.371730000e-01  5.276250000e-02  1.353190000e-01  9.483608728e-01  1.863610000e-01
 2.668409100e+01  1.383735960e+01  4.190212400e+01  7.690910000e-01  1.735960000e-02  9.512400000e-02  7.751457265e-01  1.824000000e-01
 2.686420200e+01  1.113007608e+01  4.250245050e+01  6.002020000e-01 -7.923920000e-03  5.245050000e-02  6.025415208e-01  1.808850000e-01
 2.697905500e+01  8.388317900e+00  4.299417390e+01  4.340550000e-01 -2.118210000e-02  1.317390000e-02  4.347711766e-01  1.821660000e-01
 2.700481900e+01  5.615117200e+00  4.340263640e+01  2.748190000e-01 -2.138280000e-02 -1.536360000e-02  2.760774295e-01  1.884350000e-01
 2.691037300e+01  2.821969670e+00  4.377663560e+01  1.243730000e-01 -5.430330000e-03 -2.836440000e-02  1.276819126e-01  1.881020000e-01
 2.663525000e+01  3.021106600e+01  3.324571170e+01  1.713250000e+00  3.160660000e-01  8.671170000e-02  1.744317115e+00  2.132640000e-01
 2.695316000e+01  2.814404600e+01  3.465323200e+01  1.606160000e+00  2.710460000e-01  1.202320000e-01  1.633300834e+00  2.080230000e-01
 2.735443000e+01  2.592146900e+01  3.590506400e+01  1.483430000e+00  2.224690000e-01  1.390640000e-01  1.506451399e+00  2.016560000e-01
 2.777743000e+01  2.358148800e+01  3.702444700e+01  1.347430000e+00  1.724880000e-01  1.434470000e-01  1.365978315e+00  1.947030000e-01
 2.818374000e+01  2.115156100e+01  3.802257000e+01  1.200740000e+00  1.235610000e-01  1.345700000e-01  1.214558748e+00  1.877690000e-01
 2.854994000e+01  1.865017270e+01  3.890747000e+01  1.045940000e+00  7.817270000e-02  1.144700000e-01  1.055085227e+00  1.815140000e-01
 2.886766900e+01  1.609166510e+01  3.967993530e+01  8.856690000e-01  3.866510000e-02  8.593530000e-02  8.906679759e-01  1.765740000e-01
 2.912981200e+01  1.348616889e+01  4.034350710e+01  7.228120000e-01  7.168890000e-03  5.250710000e-02  7.247520789e-01  1.735010000e-01
 2.933357600e+01  1.084355770e+01  4.090052770e+01  5.605760000e-01 -1.444230000e-02  1.852770000e-02  5.610680061e-01  1.727490000e-01
 2.947049100e+01  8.168773100e+00  4.136106690e+01  4.024910000e-01 -2.462690000e-02 -1.093310000e-02  4.033918963e-01  1.745190000e-01
 2.952265400e+01  5.467663700e+00  4.174738690e+01  2.526540000e-01 -2.263630000e-02 -2.961310000e-02  2.553886871e-01  1.808130000e-01
 2.946961800e+01  2.748887860e+00  4.210324210e+01  1.126180000e-01 -5.912140000e-03 -3.375790000e-02  1.177173018e-01  1.798510000e-01
 2.865956000e+01  2.949179600e+01  3.227426920e+01  1.651560000e+00  2.877960000e-01  5.226920000e-02  1.677262365e+00  2.017250000e-01
 2.903055000e+01  2.752008900e+01  3.351571600e+01  1.546550000e+00  2.440890000e-01  7.771600000e-02  1.567621166e+00  1.965050000e-01
 2.948793000e+01  2.536606900e+01  3.462811340e+01  1.424930000e+00  1.970690000e-01  9.111340000e-02  1.441375505e+00  1.902830000e-01
 2.996310000e+01  2.308021800e+01  3.563178780e+01  1.290100000e+00  1.492180000e-01  9.278780000e-02  1.302011366e+00  1.836400000e-01
 3.041626000e+01  2.069910500e+01  3.653390360e+01  1.145260000e+00  1.031050000e-01  8.390360000e-02  1.152948794e+00  1.772320000e-01
 3.082433500e+01  1.824610200e+01  3.733635080e+01  9.933350000e-01  6.110200000e-02  6.635080000e-02  9.974218292e-01  1.716830000e-01
 3.117815100e+01  1.573730920e+01  3.803966560e+01  8.371510000e-01  2.530920000e-02  4.266560000e-02  8.386195239e-01  1.675410000e-01
 3.147162300e+01  1.318555083e+01  3.864599300e+01  6.796230000e-01 -2.449170000e-03  1.599300000e-02  6.798155607e-01  1.652520000e-01
 3.170195400e+01  1.059739250e+01  3.915812026e+01  5.239540000e-01 -2.060750000e-02 -9.879740000e-03  5.244521641e-01  1.651570000e-01
 3.186360200e+01  7.982576500e+00  3.958439340e+01  3.736020000e-01 -2.792350000e-02 -3.060660000e-02  3.758921923e-01  1.673380000e-01
 3.194253800e+01  5.343531600e+00  3.994414540e+01  2.325380000e-01 -2.386840000e-02 -4.085460000e-02  2.373030137e-01  1.736570000e-01
 3.192701400e+01  2.687531800e+00  4.027829090e+01  1.020140000e-01 -6.368200000e-03 -3.770910000e-02  1.089467135e-01  1.721040000e-01
 3.042151000e+01  2.892635800e+01  3.123373870e+01  1.597510000e+00  2.613580000e-01  1.773870000e-02  1.618845535e+00  1.918990000e-01
 3.089298000e+01  2.707620000e+01  3.224611710e+01  1.495980000e+00  2.202000000e-01  3.611710000e-02  1.512530544e+00  1.865550000e-01
 3.143977000e+01  2.499007000e+01  3.319569500e+01  1.375770000e+00  1.750700000e-01  4.569500000e-02  1.387616889e+00  1.803190000e-01
 3.198898000e+01  2.274823700e+01  3.408030960e+01  1.241980000e+00  1.292370000e-01  4.630960000e-02  1.249544358e+00  1.738730000e-01
 3.250364000e+01  2.039956760e+01  3.488769360e+01  1.098640000e+00  8.556760000e-02  3.869360000e-02  1.102646298e+00  1.678800000e-01
 3.296507900e+01  1.797842640e+01  3.561244130e+01  9.490790000e-01  4.642640000e-02  2.444130000e-02  9.505281353e-01  1.628880000e-01
 3.336325500e+01  1.550274040e+01  3.625078438e+01  7.962550000e-01  1.374040000e-02  5.784380000e-03  7.963945521e-01  1.593640000e-01
 3.369413800e+01  1.298411230e+01  3.680348310e+01  6.431380000e-01 -1.088770000e-02 -1.451690000e-02  6.433939458e-01  1.576740000e-01
 3.395692600e+01  1.043287180e+01  3.727084570e+01  4.929260000e-01 -2.612820000e-02 -3.315430000e-02  4.947301607e-01  1.580810000e-01
 3.414501000e+01  7.856520300e+00  3.766260940e+01  3.490100000e-01 -3.097970000e-02 -4.639060000e-02  3.534399662e-01  1.605780000e-01
 3.425232100e+01  5.258509500e+00  3.799539210e+01  2.153210000e-01 -2.509050000e-02 -4.960790000e-02  2.223816763e-01  1.669410000e-01
 3.427283350e+01  2.644819870e+00  3.830642090e+01  9.283350000e-02 -6.780130000e-03 -4.057910000e-02  1.015415789e-01  1.648700000e-01
 3.856189660e+01  2.604534500e+00  3.393191520e+01  7.789660000e-02 -7.365500000e-03 -4.408480000e-02  8.980868818e-02  1.519240000e-01
 4.051799890e+01  2.630600920e+00  3.155577310e+01  7.299890000e-02 -7.899080000e-03 -4.522690000e-02  8.623634587e-02  1.462670000e-01
 4.233523260e+01  2.677084090e+00  2.906288680e+01  6.923260000e-02 -8.515910000e-03 -4.611320000e-02  8.361878282e-02  1.411580000e-01
 4.400417680e+01  2.734001520e+00  2.646126160e+01  6.617680000e-02 -9.198480000e-03 -4.673840000e-02  8.153808268e-02  1.365650000e-01
 4.551757410e+01  2.793682960e+00  2.376190960e+01  6.357410000e-02 -9.917040000e-03 -4.709040000e-02  7.973405574e-02  1.324760000e-01
 4.686827510e+01  2.851349700e+00  2.097582360e+01  6.127510000e-02 -1.065030000e-02 -4.717640000e-02  7.806202333e-02  1.288640000e-01
 4.805221230e+01  2.904519100e+00  1.811297930e+01  5.921230000e-02 -1.138090000e-02 -4.702070000e-02  7.646285101e-02  1.257000000e-01
 4.906436200e+01  2.952399400e+00  1.518534420e+01  5.736200000e-02 -1.210060000e-02 -4.665580000e-02  7.492387629e-02  1.229510000e-01
 4.989971850e+01  2.994196100e+00  1.220388210e+01  5.571850000e-02 -1.280390000e-02 -4.611790000e-02  7.345305847e-02  1.205910000e-01
 5.055829120e+01  3.029904000e+00  9.179761700e+00  5.429120000e-02 -1.349600000e-02 -4.543830000e-02  7.207159996e-02  1.186000000e-01
 5.104310520e+01  3.059189400e+00  6.123332200e+00  5.310520000e-02 -1.421060000e-02 -4.466780000e-02  7.083301332e-02  1.170070000e-01
 5.137342420e+01  3.082628000e+00  3.045668000e+00  5.242420000e-02 -1.507200000e-02 -4.383200000e-02  6.997646857e-02  1.160130000e-01
 3.845321800e+01  5.193839000e+00  3.365394070e+01  1.882180000e-01 -2.676100000e-02 -6.205930000e-02  1.999838077e-01  1.547650000e-01
 4.037491600e+01  5.249122400e+00  3.129540530e+01  1.799160000e-01 -2.827760000e-02 -6.659470000e-02  1.939181368e-01  1.493520000e-01
 4.216192200e+01  5.342336200e+00  2.881851800e+01  1.739220000e-01 -3.006380000e-02 -7.048200000e-02  1.900536937e-01  1.443980000e-01
 4.380537500e+01  5.455238700e+00  2.623217080e+01  1.693750000e-01 -3.206130000e-02 -7.382920000e-02  1.875275136e-01  1.398920000e-01
 4.529767200e+01  5.573205900e+00  2.354731960e+01  1.656720000e-01 -3.419410000e-02 -7.668040000e-02  1.857318815e-01  1.358420000e-01
 4.663146700e+01  5.686899500e+00  2.077692990e+01  1.624670000e-01 -3.640050000e-02 -7.907010000e-02  1.843165842e-01  1.322450000e-01
 4.780260100e+01  5.791663200e+00  1.793195290e+01  1.596010000e-01 -3.863680000e-02 -8.104710000e-02  1.831226745e-01  1.290890000e-01
 4.880500500e+01  5.885327400e+00  1.502232720e+01  1.570050000e-01 -4.087260000e-02 -8.267280000e-02  1.820877023e-01  1.263560000e-01
 4.963564700e+01  5.966806900e+00  1.206099480e+01  1.546470000e-01 -4.309310000e-02 -8.400520000e-02  1.811893581e-01  1.240270000e-01
 5.029449800e+01  6.035696300e+00  9.058896400e+00  1.524980000e-01 -4.530370000e-02 -8.510360000e-02  1.804180921e-01  1.220950000e-01
 5.078662500e+01  6.091468900e+00  6.026705700e+00  1.506250000e-01 -4.763110000e-02 -8.599430000e-02  1.798655941e-01  1.206350000e-01
 5.114016200e+01  6.135172500e+00  2.974832200e+00  1.491620000e-01 -5.052750000e-02 -8.676780000e-02  1.798081801e-01  1.199860000e-01
 3.827370300e+01  7.778752300e+00  3.335830050e+01  3.117030000e-01 -3.474770000e-02 -6.969950000e-02  3.212852053e-01  1.481290000e-01
 4.016094700e+01  7.867183200e+00  3.101842960e+01  3.009470000e-01 -3.731680000e-02 -7.857040000e-02  3.132649807e-01  1.424290000e-01
 4.191357300e+01  8.008706400e+00  2.855763180e+01  2.935730000e-01 -4.009360000e-02 -8.636820000e-02  3.086293393e-01  1.370820000e-01
 4.352532100e+01  8.178112000e+00  2.598764950e+01  2.883210000e-01 -4.308800000e-02 -9.335050000e-02  3.061043787e-01  1.320840000e-01
 4.499022600e+01  8.354141400e+00  2.331936140e+01  2.842260000e-01 -4.625860000e-02 -9.963860000e-02  3.047164711e-01  1.274610000e-01
 4.630171500e+01  8.523340900e+00  2.056569200e+01  2.807150000e-01 -4.955910000e-02 -1.053080000e-01  3.038861472e-01  1.232280000e-01
 4.745352000e+01  8.678852500e+00  1.773856900e+01  2.775200000e-01 -5.294750000e-02 -1.104310000e-01  3.033410521e-01  1.193900000e-01
 4.844152000e+01  8.817309400e+00  1.484891500e+01  2.745200000e-01 -5.639060000e-02 -1.150850000e-01  3.029615279e-01  1.159430000e-01
 4.926264500e+01  8.937338000e+00  1.190965500e+01  2.716450000e-01 -5.986200000e-02 -1.193450000e-01  3.026841491e-01  1.128830000e-01
 4.991584800e+01  9.037813000e+00  8.931826000e+00  2.688480000e-01 -6.338700000e-02 -1.232740000e-01  3.024791529e-01  1.102180000e-01
 5.040811100e+01  9.118465900e+00  5.925465000e+00  2.661110000e-01 -6.713410000e-02 -1.269350000e-01  3.023814576e-01  1.080130000e-01
 5.076866900e+01  9.180676800e+00  2.900711000e+00  2.636690000e-01 -7.192320000e-02 -1.304890000e-01  3.028558525e-01  1.064990000e-01
 3.801047000e+01  1.035035540e+01  3.301857050e+01  4.474700000e-01 -3.264460000e-02 -6.842950000e-02  4.538476256e-01  1.451080000e-01
 3.985926100e+01  1.047482480e+01  3.070075400e+01  4.352610000e-01 -3.617520000e-02 -8.224600000e-02  4.444380584e-01  1.391410000e-01
 4.157042300e+01  1.066633800e+01  2.825936830e+01  4.274230000e-01 -3.966200000e-02 -9.463170000e-02  4.395664385e-01  1.334870000e-01
 4.314426900e+01  1.089171630e+01  2.570700000e+01  4.222690000e-01 -4.328370000e-02 -1.060000000e-01  4.375163849e-01  1.281390000e-01
 4.457345800e+01  1.112590050e+01  2.305844800e+01  4.184580000e-01 -4.709950000e-02 -1.165520000e-01  4.369322938e-01  1.231160000e-01
 4.585319000e+01  1.134888630e+01  2.032461000e+01  4.151900000e-01 -5.111370000e-02 -1.263900000e-01  4.370008908e-01  1.184360000e-01
 4.697908200e+01  1.155469620e+01  1.751940500e+01  4.120820000e-01 -5.530380000e-02 -1.355950000e-01  4.373283538e-01  1.141080000e-01
 4.794495900e+01  1.173636250e+01  1.465475900e+01  4.089590000e-01 -5.963750000e-02 -1.442410000e-01  4.377322940e-01  1.101360000e-01
 4.875072300e+01  1.189390750e+01  1.174160100e+01  4.057230000e-01 -6.409250000e-02 -1.523990000e-01  4.381146613e-01  1.065240000e-01
 4.939329300e+01  1.202431500e+01  8.791373000e+00  4.022930000e-01 -6.868500000e-02 -1.601270000e-01  4.384038586e-01  1.032810000e-01
 4.987964800e+01  1.212833300e+01  5.815002000e+00  3.986480000e-01 -7.366700000e-02 -1.674980000e-01  4.386372474e-01  1.004470000e-01
 5.023994400e+01  1.220704930e+01  2.821448000e+00  3.949440000e-01 -7.995070000e-02 -1.745520000e-01  4.391369698e-01  9.817340000e-02
 3.766443200e+01  1.290237760e+01  3.261915660e+01  5.914320000e-01 -2.062240000e-02 -6.184340000e-02  5.950140336e-01  1.440350000e-01
 3.946452400e+01  1.306401440e+01  3.032907670e+01  5.785240000e-01 -2.498560000e-02 -8.092330000e-02  5.846904132e-01  1.378260000e-01
 4.112582800e+01  1.330507990e+01  2.791065710e+01  5.708280000e-01 -2.892010000e-02 -9.834290000e-02  5.799588811e-01  1.319420000e-01
 4.265023200e+01  1.358715610e+01  2.538136100e+01  5.662320000e-01 -3.284390000e-02 -1.146390000e-01  5.786531776e-01  1.263560000e-01
 4.403502500e+01  1.387703380e+01  2.275393400e+01  5.630250000e-01 -3.696620000e-02 -1.300660000e-01  5.790343815e-01  1.210690000e-01
 4.527418600e+01  1.415362580e+01  2.004527300e+01  5.601860000e-01 -4.137420000e-02 -1.447270000e-01  5.800569658e-01  1.160920000e-01
 4.636422700e+01  1.440692040e+01  1.726731500e+01  5.572270000e-01 -4.607960000e-02 -1.586850000e-01  5.812109671e-01  1.114330000e-01
 4.730193000e+01  1.463093800e+01  1.443200600e+01  5.539300000e-01 -5.106200000e-02 -1.719940000e-01  5.822608597e-01  1.070960000e-01
 4.808417900e+01  1.482370580e+01  1.155030100e+01  5.501790000e-01 -5.629420000e-02 -1.846990000e-01  5.830777732e-01  1.030860000e-01
 4.871089300e+01  1.498219350e+01  8.633654000e+00  5.458930000e-01 -6.180650000e-02 -1.968460000e-01  5.835816640e-01  9.940890000e-02
 4.918802700e+01  1.510715170e+01  5.692439000e+00  5.410270000e-01 -6.784830000e-02 -2.084610000e-01  5.837547388e-01  9.608310000e-02
 4.954278400e+01  1.520257690e+01  2.735372000e+00  5.357840000e-01 -7.542310000e-02 -2.196280000e-01  5.839431454e-01  9.319450000e-02
 3.723414400e+01  1.542655410e+01  3.215413960e+01  7.401440000e-01  5.540950000e-04 -5.286040000e-02  7.420294264e-01  1.450240000e-01
 3.897617100e+01  1.562654678e+01  2.989676440e+01  7.271710000e-01 -4.453220000e-03 -7.723560000e-02  7.312747995e-01  1.386360000e-01
 4.057807000e+01  1.591643404e+01  2.750611170e+01  7.200700000e-01 -8.565960000e-03 -9.988830000e-02  7.270157172e-01  1.326210000e-01
 4.204231900e+01  1.625351360e+01  2.500257100e+01  7.163190000e-01 -1.248640000e-02 -1.214290000e-01  7.266455959e-01  1.269240000e-01
 4.337085700e+01  1.659738510e+01  2.240388600e+01  7.138570000e-01 -1.661490000e-02 -1.421140000e-01  7.280551218e-01  1.215190000e-01
 4.456046600e+01  1.692585710e+01  1.972498000e+01  7.114660000e-01 -2.114290000e-02 -1.620200000e-01  7.299872408e-01  1.164000000e-01
 4.560756900e+01  1.722487270e+01  1.697883700e+01  7.085690000e-01 -2.612730000e-02 -1.811630000e-01  7.318283242e-01  1.115700000e-01
 4.650792300e+01  1.748844050e+01  1.417844700e+01  7.049230000e-01 -3.155950000e-02 -1.995530000e-01  7.333033736e-01  1.070320000e-01
 4.726141300e+01  1.771358420e+01  1.133379800e+01  7.004130000e-01 -3.741580000e-02 -2.172020000e-01  7.342717627e-01  1.027880000e-01
 4.786496600e+01  1.789928560e+01  8.456888000e+00  6.949660000e-01 -4.371440000e-02 -2.341120000e-01  7.346408091e-01  9.883880000e-02
 4.832756500e+01  1.804428750e+01  5.556901000e+00  6.885650000e-01 -5.071250000e-02 -2.502990000e-01  7.343998273e-01  9.518740000e-02
 4.867445000e+01  1.815456990e+01  2.642195000e+00  6.814500000e-01 -5.943010000e-02 -2.658050000e-01  7.338653400e-01  9.186740000e-02
 3.672041500e+01  1.791384790e+01  3.162092090e+01  8.904150000e-01  2.984790000e-02 -4.407910000e-02  8.920048971e-01  1.478900000e-01
 3.839394000e+01  1.815244480e+01  2.940248030e+01  8.779400000e-01  2.444480000e-02 -7.351970000e-02  8.813519945e-01  1.413950000e-01
 3.992479200e+01  1.849143830e+01  2.704462100e+01  8.717920000e-01  2.043830000e-02 -1.013790000e-01  8.779047312e-01  1.353460000e-01
 4.131906200e+01  1.888081440e+01  2.457274100e+01  8.690620000e-01  1.681440000e-02 -1.282590000e-01  8.786363611e-01  1.296450000e-01
 4.258238200e+01  1.927695320e+01  2.200562700e+01  8.673820000e-01  1.295320000e-02 -1.543730000e-01  8.811074523e-01  1.242330000e-01
 4.371136700e+01  1.965254521e+01  1.936127900e+01  8.653670000e-01  8.545210000e-03 -1.797210000e-01  8.838736918e-01  1.190890000e-01
 4.470637800e+01  1.999548219e+01  1.665374400e+01  8.623780000e-01  3.482190000e-03 -2.042560000e-01  8.862440150e-01  1.142090000e-01
 4.556216300e+01  2.029575802e+01  1.389307400e+01  8.581630000e-01 -2.241980000e-03 -2.279260000e-01  8.879183648e-01  1.095920000e-01
 4.627962500e+01  2.055240174e+01  1.109231300e+01  8.526250000e-01 -8.598260000e-03 -2.506870000e-01  8.887560366e-01  1.052360000e-01
 4.685572300e+01  2.076240330e+01  8.260796000e+00  8.457230000e-01 -1.559670000e-02 -2.725040000e-01  8.886782769e-01  1.011400000e-01
 4.729848000e+01  2.092652640e+01  5.407948000e+00  8.374800000e-01 -2.347360000e-02 -2.933520000e-01  8.876819003e-01  9.729420000e-02
 4.763320800e+01  2.104977190e+01  2.541622000e+00  8.282080000e-01 -3.322810000e-02 -3.132780000e-01  8.861014068e-01  9.369960000e-02
 3.612433000e+01  2.035300340e+01  3.102335210e+01  1.039330000e+00  6.600340000e-02 -3.764790000e-02  1.042103959e+00  1.523620000e-01
 3.771795000e+01  2.063054470e+01  2.884930870e+01  1.027950000e+00  6.054470000e-02 -7.169130000e-02  1.032224058e+00  1.458550000e-01
 3.916611000e+01  2.101697320e+01  2.652948800e+01  1.023110000e+00  5.697320000e-02 -1.045120000e-01  1.030011056e+00  1.398690000e-01
 4.048057000e+01  2.145695010e+01  2.409236900e+01  1.021570000e+00  5.395010000e-02 -1.366310000e-01  1.032077472e+00  1.342550000e-01
 4.166768000e+01  2.190262810e+01  2.156286200e+01  1.020680000e+00  5.062810000e-02 -1.681380000e-01  1.035674299e+00  1.289210000e-01
 4.272797000e+01  2.232356810e+01  1.895806700e+01  1.018970000e+00  4.656810000e-02 -1.989330000e-01  1.039251070e+00  1.238340000e-01
 4.366175000e+01  2.270561340e+01  1.629312600e+01  1.015750000e+00  4.161340000e-02 -2.288740000e-01  1.042047526e+00  1.189820000e-01
 4.446678000e+01  2.304074540e+01  1.357916600e+01  1.010780000e+00  3.574540000e-02 -2.578340000e-01  1.043758743e+00  1.143630000e-01
 4.514101000e+01  2.332599910e+01  1.082729300e+01  1.004010000e+00  2.899910000e-02 -2.857070000e-01  1.044272722e+00  1.099730000e-01
 4.568442300e+01  2.355938320e+01  8.046796000e+00  9.954230000e-01  2.138320000e-02 -3.124040000e-01  1.043513512e+00  1.058060000e-01
 4.610311700e+01  2.374069120e+01  5.246831000e+00  9.851170000e-01  1.269120000e-02 -3.378690000e-01  1.041523899e+00  1.018500000e-01
 4.642148200e+01  2.387697946e+01  2.434261000e+00  9.734820000e-01  1.979460000e-03 -3.621390000e-01  1.038660569e+00  9.808650000e-02
 3.544703000e+01  2.272348700e+01  3.037178970e+01  1.184030000e+00  1.074870000e-01 -3.521030000e-02  1.189420137e+00  1.580880000e-01
 3.694649000e+01  2.304445400e+01  2.824985360e+01  1.174490000e+00  1.024540000e-01 -7.314640000e-02  1.181217160e+00  1.517100000e-01
 3.829946000e+01  2.347973480e+01  2.597349100e+01  1.171460000e+00  9.973480000e-02 -1.105090000e-01  1.180880096e+00  1.458980000e-01
 3.952332000e+01  2.396867130e+01  2.357640800e+01  1.171320000e+00  9.767130000e-02 -1.475920000e-01  1.184615391e+00  1.404520000e-01
 4.062632000e+01  2.446117510e+01  2.108769000e+01  1.171320000e+00  9.517510000e-02 -1.843100000e-01  1.189545719e+00  1.352640000e-01
 4.160990000e+01  2.492470310e+01  1.852659500e+01  1.169900000e+00  9.170310000e-02 -2.204050000e-01  1.194007468e+00  1.302930000e-01
 4.247639000e+01  2.534405240e+01  1.590837400e+01  1.166390000e+00  8.705240000e-02 -2.556260000e-01  1.197241999e+00  1.255180000e-01
 4.322258000e+01  2.571120000e+01  1.324424400e+01  1.160580000e+00  8.120000000e-02 -2.897560000e-01  1.198957012e+00  1.209370000e-01
 4.384845000e+01  2.602319020e+01  1.054538500e+01  1.152450000e+00  7.419020000e-02 -3.226150000e-01  1.199051970e+00  1.165460000e-01
 4.435406000e+01  2.627805480e+01  7.820538000e+00  1.142060000e+00  6.605480000e-02 -3.540620000e-01  1.197507486e+00  1.123420000e-01
 4.474458000e+01  2.647562660e+01  5.077198000e+00  1.129580000e+00  5.662660000e-02 -3.840020000e-01  1.194409931e+00  1.083110000e-01
 4.504247000e+01  2.662404020e+01  2.322228000e+00  1.115470000e+00  4.504020000e-02 -4.124720000e-01  1.190140786e+00  1.044280000e-01
 3.468827000e+01  2.499335000e+01  2.969644570e+01  1.321270000e+00  1.523500000e-01 -3.755430000e-02  1.330554494e+00  1.646790000e-01
 3.606974000e+01  2.536349600e+01  2.764155930e+01  1.314740000e+00  1.484960000e-01 -7.844070000e-02  1.325422677e+00  1.586470000e-01
 3.731430000e+01  2.585426100e+01  2.541524800e+01  1.314300000e+00  1.472610000e-01 -1.197520000e-01  1.327934800e+00  1.531430000e-01
 3.843907000e+01  2.639460900e+01  2.306154300e+01  1.316070000e+00  1.466090000e-01 -1.614570000e-01  1.334017544e+00  1.479600000e-01
 3.945020000e+01  2.693429500e+01  2.061386200e+01  1.317200000e+00  1.452950000e-01 -2.031380000e-01  1.340668312e+00  1.429900000e-01
 4.035320000e+01  2.743868900e+01  1.809666200e+01  1.316200000e+00  1.426890000e-01 -2.443380000e-01  1.346270273e+00  1.381800000e-01
 4.114747000e+01  2.789458000e+01  1.552533500e+01  1.312470000e+00  1.385800000e-01 -2.846650000e-01  1.350117061e+00  1.335110000e-01
 4.183085000e+01  2.829294300e+01  1.291219900e+01  1.305850000e+00  1.329430000e-01 -3.238010000e-01  1.351948650e+00  1.289820000e-01
 4.240438000e+01  2.863084000e+01  1.026551000e+01  1.296380000e+00  1.258400000e-01 -3.614900000e-01  1.351707006e+00  1.245970000e-01
 4.286819000e+01  2.890532800e+01  7.595270000e+00  1.284190000e+00  1.173280000e-01 -3.975300000e-01  1.349422068e+00  1.203560000e-01
 4.322650000e+01  2.911928500e+01  4.908010000e+00  1.269500000e+00  1.072850000e-01 -4.317900000e-01  1.345207391e+00  1.162470000e-01
 4.350192000e+01  2.928091840e+01  2.209791000e+00  1.252920000e+00  9.491840000e-02 -4.643090000e-01  1.339552491e+00  1.122470000e-01
 3.384114000e+01  2.709913700e+01  2.906093810e+01  1.447140000e+00  1.981370000e-01 -4.406190000e-02  1.461305547e+00  1.717250000e-01
 3.507154000e+01  2.753980300e+01  2.709438720e+01  1.445540000e+00  1.968030000e-01 -8.661280000e-02  1.461444179e+00  1.663580000e-01
 3.618917000e+01  2.809997300e+01  2.492367100e+01  1.449170000e+00  1.979730000e-01 -1.313290000e-01  1.468514319e+00  1.613680000e-01
 3.720668000e+01  2.870340100e+01  2.261060900e+01  1.453680000e+00  1.994010000e-01 -1.773910000e-01  1.477976275e+00  1.565910000e-01
 3.812547000e+01  2.929471300e+01  2.019908900e+01  1.456470000e+00  1.997130000e-01 -2.239110000e-01  1.487052884e+00  1.519130000e-01
 3.894623000e+01  2.984433200e+01  1.771886800e+01  1.456230000e+00  1.983320000e-01 -2.701320000e-01  1.494293376e+00  1.472980000e-01
 3.966651000e+01  3.033906000e+01  1.518850500e+01  1.452510000e+00  1.950600000e-01 -3.154950000e-01  1.499123343e+00  1.427450000e-01
 4.028825000e+01  3.076890000e+01  1.261742500e+01  1.445250000e+00  1.899000000e-01 -3.595750000e-01  1.501367295e+00  1.382660000e-01
 4.080757000e+01  3.113292900e+01  1.001596800e+01  1.434570000e+00  1.829290000e-01 -4.020320000e-01  1.501027592e+00  1.338740000e-01
 4.122766000e+01  3.142923300e+01  7.392295000e+00  1.420660000e+00  1.742330000e-01 -4.426050000e-01  1.498175944e+00  1.295750000e-01
 4.155186000e+01  3.165872500e+01  4.752977000e+00  1.403860000e+00  1.637250000e-01 -4.811230000e-01  1.493019798e+00  1.253630000e-01
 4.180286000e+01  3.183467900e+01  2.103569000e+00  1.384860000e+00  1.506790000e-01 -5.176310000e-01  1.486096643e+00  1.212160000e-01
 3.290492000e+01  2.895403900e+01  2.856907030e+01  1.556920000e+00  2.420390000e-01 -5.192970000e-02  1.576476913e+00  1.789060000e-01
 3.392409000e+01  2.951126300e+01  2.670987480e+01  1.564090000e+00  2.452630000e-01 -9.512520000e-02  1.586058092e+00  1.747760000e-01
 3.489491000e+01  3.017427200e+01  2.458901100e+01  1.573910000e+00  2.502720000e-01 -1.429890000e-01  1.600085815e+00  1.706100000e-01
 3.580345000e+01  3.085855800e+01  2.230146300e+01  1.582450000e+00  2.545580000e-01 -1.935370000e-01  1.614436232e+00  1.663610000e-01
 3.663263000e+01  3.151405900e+01  1.991190600e+01  1.587630000e+00  2.570590000e-01 -2.450940000e-01  1.626874124e+00  1.620090000e-01
 3.737466000e+01  3.211733100e+01  1.745447400e+01  1.588660000e+00  2.573310000e-01 -2.965260000e-01  1.636455776e+00  1.575880000e-01
 3.802734000e+01  3.265527300e+01  1.494789800e+01  1.585340000e+00  2.552730000e-01 -3.471020000e-01  1.642847229e+00  1.531340000e-01
 3.858774000e+01  3.312192100e+01  1.240271300e+01  1.577740000e+00  2.509210000e-01 -3.962870000e-01  1.645985493e+00  1.486750000e-01
 3.905706000e+01  3.351537900e+01  9.829336000e+00  1.566060000e+00  2.443790000e-01 -4.436640000e-01  1.645935225e+00  1.442380000e-01
 3.943360000e+01  3.383474300e+01  7.235493000e+00  1.550600000e+00  2.357430000e-01 -4.889070000e-01  1.642852756e+00  1.398380000e-01
 3.972480000e+01  3.408295500e+01  4.627092000e+00  1.531800000e+00  2.249550000e-01 -5.318080000e-01  1.637020385e+00  1.354720000e-01
 3.994845000e+01  3.427536600e+01  2.010504000e+00  1.510450000e+00  2.113660000e-01 -5.723960000e-01  1.629040199e+00  1.311230000e-01
 2.981884000e+01  2.688017600e+01  2.811763203e+01  1.494840000e+00  3.281760000e-01 -9.367970000e-03  1.530468514e+00  2.097010000e-01
 3.041137000e+01  2.524649600e+01  2.879312450e+01  1.391370000e+00  2.974960000e-01  1.124500000e-03  1.422819599e+00  1.999830000e-01
 3.102927000e+01  2.333548000e+01  2.951798336e+01  1.269270000e+00  2.624800000e-01  6.983360000e-03  1.296144610e+00  1.894890000e-01
 3.162199000e+01  2.125970300e+01  3.023178525e+01  1.135990000e+00  2.257030000e-01  6.785250000e-03  1.158214645e+00  1.789340000e-01
 3.216808800e+01  1.907699800e+01  3.090270880e+01  9.960880000e-01  1.889980000e-01  7.087970000e-04  1.013859976e+00  1.690170000e-01
 3.265479600e+01  1.682071000e+01  3.151292320e+01  8.527960000e-01  1.537100000e-01 -1.007680000e-02  8.665964018e-01  1.603300000e-01
 3.307576400e+01  1.451080600e+01  3.205522870e+01  7.087640000e-01  1.208060000e-01 -2.377130000e-02  7.193786013e-01  1.533930000e-01
 3.342848800e+01  1.215898010e+01  3.252786820e+01  5.664880000e-01  9.098010000e-02 -3.813180000e-02  5.750131015e-01  1.486580000e-01
 3.371257600e+01  9.773712100e+00  3.293146200e+01  4.285760000e-01  6.471210000e-02 -5.053800000e-02  4.363704081e-01  1.464500000e-01
 3.392498100e+01  7.361160700e+00  3.327205580e+01  2.979810000e-01  4.216070000e-02 -5.794420000e-02  3.064763144e-01  1.467690000e-01
 3.406116500e+01  4.924858000e+00  3.356517880e+01  1.781650000e-01  2.325800000e-02 -5.682120000e-02  1.884472089e-01  1.505680000e-01
 3.412567080e+01  2.463453180e+00  3.384276310e+01  7.267080000e-02  3.553180000e-03 -4.423690000e-02  8.515029995e-02  1.456790000e-01
 4.862260000e+00  3.340364500e+01  3.351682700e+01  2.458060000e+00 -5.993550000e-01 -3.801730000e-01  2.558479410e+00  4.397140000e-01
 7.199600000e+00  3.348050300e+01  3.341861500e+01  2.383100000e+00 -3.344970000e-01 -2.203850000e-01  2.416531275e+00  4.369100000e-01
 9.533280000e+00  3.344486500e+01  3.324836500e+01  2.309880000e+00 -1.161350000e-01 -9.963500000e-02  2.314942782e+00  4.256980000e-01
 1.185365000e+01  3.328491540e+01  3.298848100e+01  2.239150000e+00  5.591540000e-02 -1.351900000e-02  2.239888841e+00  4.089530000e-01
 1.414977000e+01  3.300387900e+01  3.263267430e+01  2.168770000e+00  1.858790000e-01  4.267430000e-02  2.177139272e+00  3.880690000e-01
 1.641373000e+01  3.261010400e+01  3.218285670e+01  2.096730000e+00  2.791040000e-01  7.385670000e-02  2.116513772e+00  3.643700000e-01
 1.863464000e+01  3.211217400e+01  3.164301540e+01  2.021640000e+00  3.411740000e-01  8.501540000e-02  2.051988208e+00  3.391180000e-01
 2.080687000e+01  3.151642600e+01  3.102086970e+01  1.942870000e+00  3.774260000e-01  8.086970000e-02  1.980841773e+00  3.134600000e-01
 2.291649000e+01  3.083278500e+01  3.032878300e+01  1.860490000e+00  3.927850000e-01  6.578300000e-02  1.902637774e+00  2.884160000e-01
 2.493280000e+01  3.007692700e+01  2.958388240e+01  1.775800000e+00  3.919270000e-01  4.388240000e-02  1.819065166e+00  2.649670000e-01
 2.678564000e+01  2.928996600e+01  2.883034720e+01  1.692640000e+00  3.799660000e-01  1.934720000e-02  1.734871363e+00  2.441500000e-01
 2.834686000e+01  2.856095200e+01  2.813842884e+01  1.618860000e+00  3.629520000e-01 -3.571160000e-03  1.659052322e+00  2.273010000e-01
 3.550489000e+01  3.432611600e+01  1.787588000e+00  1.548890000e+00  3.711160000e-01 -5.952120000e-01  1.700313101e+00  1.556910000e-01
 3.530940000e+01  3.411912600e+01  4.216340000e+00  1.572400000e+00  3.831260000e-01 -5.525600000e-01  1.710131529e+00  1.614900000e-01
 3.506350000e+01  3.386004100e+01  6.642040000e+00  1.593500000e+00  3.920410000e-01 -5.073600000e-01  1.717659036e+00  1.672620000e-01
 3.474613000e+01  3.353239100e+01  9.057370000e+00  1.611130000e+00  3.983910000e-01 -4.596300000e-01  1.722125141e+00  1.730610000e-01
 3.435273000e+01  3.313125200e+01  1.145539900e+01  1.624730000e+00  4.022520000e-01 -4.096010000e-01  1.723173591e+00  1.788960000e-01
 3.388289000e+01  3.265355200e+01  1.382839200e+01  1.633890000e+00  4.035520000e-01 -3.576080000e-01  1.720562184e+00  1.847380000e-01
 3.333525000e+01  3.210320300e+01  1.616893100e+01  1.638250000e+00  4.022030000e-01 -3.040690000e-01  1.714085258e+00  1.905350000e-01
 3.271247000e+01  3.148113600e+01  1.846949700e+01  1.637470000e+00  3.981360000e-01 -2.495030000e-01  1.703546895e+00  1.962090000e-01
 3.202322000e+01  3.079030100e+01  2.071334700e+01  1.631220000e+00  3.913010000e-01 -1.946530000e-01  1.688752484e+00  2.016330000e-01
 3.128824000e+01  3.004279300e+01  2.286308600e+01  1.619240000e+00  3.817930000e-01 -1.409140000e-01  1.669599002e+00  2.066280000e-01
 3.054923000e+01  2.927222200e+01  2.483815590e+01  1.602230000e+00  3.702220000e-01 -9.084410000e-02  1.646954144e+00  2.110400000e-01
 2.987789000e+01  2.855709700e+01  2.650355290e+01  1.582890000e+00  3.580970000e-01 -4.844710000e-02  1.623613666e+00  2.146210000e-01
 4.722590000e+00  3.145723400e+01  3.571609300e+01  2.294490000e+00 -4.467660000e-01 -1.589070000e-01  2.342975812e+00  4.411480000e-01
 4.594400000e+00  2.938604000e+01  3.776972720e+01  2.119000000e+00 -3.069600000e-01  4.972720000e-02  2.141695178e+00  4.392410000e-01
 4.470990000e+00  2.718566100e+01  3.965967400e+01  1.935390000e+00 -1.893390000e-01  2.326740000e-01  1.958499655e+00  4.335720000e-01
 4.348230000e+00  2.486277240e+01  4.137138700e+01  1.746530000e+00 -9.822760000e-02  3.793870000e-01  1.789958155e+00  4.235940000e-01
 4.224290000e+00  2.242706630e+01  4.289230400e+01  1.554590000e+00 -3.393370000e-02  4.823040000e-01  1.628041373e+00  4.091180000e-01
 4.100330000e+00  1.989127656e+01  4.421239500e+01  1.361330000e+00  6.276560000e-03  5.373950000e-01  1.463575126e+00  3.904620000e-01
 3.979400000e+00  1.727300600e+01  4.532729100e+01  1.168200000e+00  2.700600000e-02  5.442910000e-01  1.289059059e+00  3.684770000e-01
 3.867815000e+00  1.458963050e+01  4.623638200e+01  9.764150000e-01  3.363050000e-02  5.063820000e-01  1.100427186e+00  3.445320000e-01
 3.773133000e+00  1.185845090e+01  4.694234000e+01  7.866330000e-01  3.145090000e-02  4.303400000e-01  8.972029600e-01  3.206350000e-01
 3.697292000e+00  9.082447300e+00  4.745628600e+01  5.986920000e-01  2.434730000e-02  3.262860000e-01  6.822664111e-01  2.995110000e-01
 3.613162000e+00  6.227229400e+00  4.780321800e+01  4.086620000e-01  1.532940000e-02  2.052180000e-01  4.575522356e-01  2.853410000e-01
 3.421627000e+00  3.202712450e+00  4.802653540e+01  2.115270000e-01 -2.487550000e-03  8.153540000e-02  2.267110079e-01  2.747220000e-01
 7.100490000e+00  3.151430900e+01  3.556185320e+01  2.234690000e+00 -2.276910000e-01 -3.014680000e-02  2.246461978e+00  4.362650000e-01
 7.033940000e+00  2.942600600e+01  3.755661000e+01  2.073240000e+00 -1.299940000e-01  1.456100000e-01  2.082408416e+00  4.313070000e-01
 6.983540000e+00  2.721537420e+01  3.938868500e+01  1.902040000e+00 -4.962580000e-02  2.956850000e-01  1.925525513e+00  4.222490000e-01
 6.937930000e+00  2.488886047e+01  4.104630400e+01  1.723630000e+00  9.860470000e-03  4.113040000e-01  1.772052083e+00  4.089220000e-01
 6.891570000e+00  2.245736860e+01  4.251980100e+01  1.540170000e+00  4.836860000e-02  4.868010000e-01  1.615994543e+00  3.915770000e-01
 6.844360000e+00  1.993430580e+01  4.380171100e+01  1.353460000e+00  6.830580000e-02  5.197110000e-01  1.451419711e+00  3.708270000e-01
 6.800500000e+00  1.733650560e+01  4.488777600e+01  1.165100000e+00  7.350560000e-02  5.107760000e-01  1.274265751e+00  3.476880000e-01
 6.768335000e+00  1.467834180e+01  4.577687500e+01  9.764350000e-01  6.834180000e-02  4.638750000e-01  1.083178622e+00  3.236020000e-01
 6.756366000e+00  1.197093890e+01  4.647568400e+01  7.882660000e-01  5.693890000e-02  3.856840000e-01  8.794074556e-01  3.005690000e-01
 6.757373000e+00  9.202962100e+00  4.699537600e+01  5.996730000e-01  4.206210000e-02  2.853760000e-01  6.654445045e-01  2.811420000e-01
 6.711695000e+00  6.316022100e+00  4.736826200e+01  4.070950000e-01  2.602210000e-02  1.732620000e-01  4.431965809e-01  2.697400000e-01
 6.461073000e+00  3.222413197e+00  4.765232080e+01  2.067730000e-01  3.131970000e-04  6.232080000e-02  2.159607690e-01  2.609130000e-01
 9.471980000e+00  3.146971200e+01  3.533580990e+01  2.173180000e+00 -4.628800000e-02  6.280990000e-02  2.174580184e+00  4.225060000e-01
 9.463340000e+00  2.937075270e+01  3.726855200e+01  2.022740000e+00  1.675270000e-02  2.095520000e-01  2.033634628e+00  4.146500000e-01
 9.481640000e+00  2.715117410e+01  3.903991100e+01  1.861240000e+00  6.617410000e-02  3.309110000e-01  1.891585430e+00  4.028480000e-01
 9.508850000e+00  2.482012420e+01  4.064090400e+01  1.691050000e+00  9.912420000e-02  4.199040000e-01  1.745220639e+00  3.872340000e-01
 9.534990000e+00  2.238879000e+01  4.206540800e+01  1.514190000e+00  1.157900000e-01  4.724080000e-01  1.590392404e+00  3.682810000e-01
 9.557870000e+00  1.987034500e+01  4.330621400e+01  1.332470000e+00  1.183450000e-01  4.872140000e-01  1.423678096e+00  3.467680000e-01
 9.580220000e+00  1.727805300e+01  4.436086800e+01  1.147520000e+00  1.100530000e-01  4.658680000e-01  1.243361093e+00  3.237850000e-01
 9.609069000e+00  1.462450050e+01  4.522957200e+01  9.607690000e-01  9.450050000e-02  4.125720000e-01  1.049868121e+00  3.007830000e-01
 9.648393000e+00  1.191495290e+01  4.591787300e+01  7.729930000e-01  7.495290000e-02  3.338730000e-01  8.453444833e-01  2.797000000e-01
 9.681164000e+00  9.131390500e+00  4.643949800e+01  5.836640000e-01  5.359050000e-02  2.384980000e-01  6.327850366e-01  2.629070000e-01
 9.631198000e+00  6.223940400e+00  4.682996800e+01  3.906980000e-01  3.184040000e-02  1.369680000e-01  4.152336346e-01  2.547480000e-01
 9.343962000e+00  3.144521810e+00  4.715340700e+01  1.939620000e-01  3.021810000e-03  4.240700000e-02  1.985667203e-01  2.476250000e-01
 1.182612000e+01  3.131037760e+01  3.501431200e+01  2.111220000e+00  9.637760000e-02  1.243120000e-01  2.117071563e+00  4.034860000e-01
 1.187050000e+01  2.920757100e+01  3.688152400e+01  1.969000000e+00  1.315710000e-01  2.455240000e-01  1.988606035e+00  3.933600000e-01
 1.195177000e+01  2.698498500e+01  3.858812300e+01  1.814770000e+00  1.559850000e-01  3.421230000e-01  1.853313147e+00  3.796290000e-01
 1.204575000e+01  2.465352400e+01  4.012867000e+01  1.650750000e+00  1.675240000e-01  4.086700000e-01  1.708815678e+00  3.626610000e-01
 1.213689000e+01  2.222358200e+01  4.149841500e+01  1.478890000e+00  1.665820000e-01  4.424150000e-01  1.552609490e+00  3.430820000e-01
 1.222002000e+01  1.970916500e+01  4.269515300e+01  1.301020000e+00  1.551650000e-01  4.431530000e-01  1.383153570e+00  3.217520000e-01
 1.229585000e+01  1.712106700e+01  4.371603800e+01  1.118850000e+00  1.360670000e-01  4.130380000e-01  1.200391578e+00  2.997860000e-01
 1.236784000e+01  1.446925600e+01  4.456146200e+01  9.338400000e-01  1.122560000e-01  3.564620000e-01  1.005844776e+00  2.786010000e-01
 1.243607900e+01  1.175640000e+01  4.523683900e+01  7.470790000e-01  8.640000000e-02  2.798390000e-01  8.024349557e-01  2.600480000e-01
 1.247670300e+01  8.968363800e+00  4.575761300e+01  5.587030000e-01  6.016380000e-02  1.916130000e-01  5.937038545e-01  2.462830000e-01
 1.241772900e+01  6.071983600e+00  4.615945700e+01  3.687290000e-01  3.498360000e-02  1.024570000e-01  3.842946325e-01  2.410700000e-01
 1.213169500e+01  3.049017940e+00  4.650764790e+01  1.796950000e-01  4.517940000e-03  2.464790000e-02  1.814338000e-01  2.350140000e-01
 1.415257000e+01  3.104045500e+01  3.459284600e+01  2.047570000e+00  2.034550000e-01  1.588460000e-01  2.063775398e+00  3.809120000e-01
 1.424454000e+01  2.894373700e+01  3.638891200e+01  1.911540000e+00  2.167370000e-01  2.579120000e-01  1.940999407e+00  3.692810000e-01
 1.438282000e+01  2.672551400e+01  3.802347200e+01  1.762820000e+00  2.215140000e-01  3.334720000e-01  1.807707493e+00  3.544540000e-01
 1.453555000e+01  2.439934000e+01  3.949753700e+01  1.603550000e+00  2.163400000e-01  3.815370000e-01  1.662451828e+00  3.369770000e-01
 1.468474000e+01  2.197681300e+01  4.080951700e+01  1.435740000e+00  2.018130000e-01  4.005170000e-01  1.504158137e+00  3.175750000e-01
 1.482027000e+01  1.947177200e+01  4.195701400e+01  1.261270000e+00  1.797720000e-01  3.910140000e-01  1.332670977e+00  2.971460000e-01
 1.494090000e+01  1.689362500e+01  4.294061400e+01  1.081900000e+00  1.526250000e-01  3.556140000e-01  1.149027118e+00  2.767870000e-01
 1.504528500e+01  1.425085000e+01  4.375976800e+01  8.992850000e-01  1.228500000e-01  2.987680000e-01  9.555458919e-01  2.578560000e-01
 1.513081600e+01  1.154660690e+01  4.442070700e+01  7.148160000e-01  9.260690000e-02  2.267070000e-01  7.556017573e-01  2.420690000e-01
 1.517554900e+01  8.773063900e+00  4.493750900e+01  5.295490000e-01  6.336390000e-02  1.475090000e-01  5.533498281e-01  2.312170000e-01
 1.511511700e+01  5.911455100e+00  4.534547940e+01  3.451170000e-01  3.625510000e-02  7.147940000e-02  3.543013980e-01  2.284210000e-01
 1.485737100e+01  2.959145940e+00  4.570743265e+01  1.653710000e-01  5.445940000e-03  9.432650000e-03  1.657292997e-01  2.229790000e-01
 1.644190000e+01  3.066834800e+01  3.407119200e+01  1.980900000e+00  2.793480000e-01  1.711920000e-01  2.007811449e+00  3.561640000e-01
 1.657572000e+01  2.858591300e+01  3.578932300e+01  1.849720000e+00  2.759130000e-01  2.513230000e-01  1.886996373e+00  3.437730000e-01
 1.676534000e+01  2.638076600e+01  3.734637700e+01  1.705340000e+00  2.657660000e-01  3.093770000e-01  1.753433834e+00  3.285900000e-01
 1.697202000e+01  2.406706100e+01  3.874864800e+01  1.550020000e+00  2.480610000e-01  3.426480000e-01  1.606705920e+00  3.113010000e-01
 1.717185000e+01  2.166055700e+01  3.999651500e+01  1.385850000e+00  2.235570000e-01  3.505150000e-01  1.446865135e+00  2.926920000e-01
 1.735378000e+01  1.917294100e+01  4.109119500e+01  1.214780000e+00  1.939410000e-01  3.341950000e-01  1.274750900e+00  2.736650000e-01
 1.751170000e+01  1.661428300e+01  4.203253500e+01  1.038700000e+00  1.612830000e-01  2.965350000e-01  1.092173476e+00  2.552760000e-01
 1.764442900e+01  1.399264600e+01  4.282094400e+01  8.594290000e-01  1.276460000e-01  2.419440000e-01  9.019138576e-01  2.387910000e-01
 1.774573000e+01  1.131184410e+01  4.346333600e+01  6.787300000e-01  9.484410000e-02  1.763360000e-01  7.076469466e-01  2.257200000e-01
 1.779741100e+01  8.568577000e+00  4.397227800e+01  4.984110000e-01  6.407700000e-02  1.072780000e-01  5.138365072e-01  2.174540000e-01
 1.774819800e+01  5.756211400e+00  4.438230950e+01  3.211980000e-01  3.631140000e-02  4.430950000e-02  3.262667693e-01  2.165800000e-01
 1.752839000e+01  2.877279850e+00  4.474958619e+01  1.513900000e-01  5.879850000e-03 -3.413810000e-03  1.515425974e-01  2.114630000e-01
 1.868537000e+01  3.020079100e+01  3.345312800e+01  1.910370000e+00  3.287910000e-01  1.661280000e-01  1.945563047e+00  3.304440000e-01
 1.885720000e+01  2.814207700e+01  3.508732000e+01  1.783200000e+00  3.130770000e-01  2.303200000e-01  1.825066232e+00  3.179240000e-01
 1.909254000e+01  2.595806600e+01  3.656210800e+01  1.642540000e+00  2.920660000e-01  2.741080000e-01  1.690673060e+00  3.029860000e-01
 1.934780000e+01  2.366643400e+01  3.788489600e+01  1.490800000e+00  2.654340000e-01  2.958960000e-01  1.542885054e+00  2.864190000e-01
 1.959422000e+01  2.128406500e+01  3.906383900e+01  1.330220000e+00  2.340650000e-01  2.958390000e-01  1.382675807e+00  2.690390000e-01
 1.981687000e+01  1.882350300e+01  4.009958800e+01  1.162870000e+00  1.995030000e-01  2.755880000e-01  1.211617444e+00  2.517290000e-01
 2.000974000e+01  1.629452400e+01  4.099311800e+01  9.907400000e-01  1.635240000e-01  2.381180000e-01  1.031991293e+00  2.354790000e-01
 2.016783400e+01  1.370486000e+01  4.174766700e+01  8.158340000e-01  1.278600000e-01  1.876670000e-01  8.468483914e-01  2.214340000e-01
 2.028723300e+01  1.106000380e+01  4.236674700e+01  6.402330000e-01  9.400380000e-02  1.297470000e-01  6.599767365e-01  2.108740000e-01
 2.035030100e+01  8.360650400e+00  4.286326340e+01  4.663010000e-01  6.295040000e-02  7.126340000e-02  4.758968876e-01  2.048180000e-01
 2.031938200e+01  5.606121700e+00  4.326777670e+01  2.973820000e-01  3.542170000e-02  2.077670000e-02  3.002039674e-01  2.054230000e-01
 2.014282200e+01  2.800679900e+00  4.363491810e+01  1.378220000e-01  5.979900000e-03 -1.408190000e-02  1.386685357e-01  2.004610000e-01
 2.087673000e+01  2.964734000e+01  3.274713500e+01  1.835730000e+00  3.563400000e-01  1.481350000e-01  1.875853621e+00  3.047850000e-01
 2.108217000e+01  2.762110100e+01  3.429011400e+01  1.712170000e+00  3.321010000e-01  1.991140000e-01  1.755409801e+00  2.926130000e-01
 2.135795000e+01  2.546665800e+01  3.567453700e+01  1.574950000e+00  3.036580000e-01  2.315370000e-01  1.620581706e+00  2.783630000e-01
 2.165673000e+01  2.320613500e+01  3.691272600e+01  1.426730000e+00  2.711350000e-01  2.447260000e-01  1.472740132e+00  2.628910000e-01
 2.194492000e+01  2.085651000e+01  3.801643100e+01  1.269920000e+00  2.355100000e-01  2.394310000e-01  1.313578688e+00  2.470150000e-01
 2.220674000e+01  1.843019400e+01  3.898658500e+01  1.106740000e+00  1.981940000e-01  2.175850000e-01  1.145206323e+00  2.315740000e-01
 2.243127900e+01  1.593971500e+01  3.982816000e+01  9.392790000e-01  1.607150000e-01  1.821600000e-01  9.701838056e-01  2.174800000e-01
 2.261568800e+01  1.339251100e+01  4.054214100e+01  7.696880000e-01  1.245110000e-01  1.371410000e-01  7.916629714e-01  2.057410000e-01
 2.275529300e+01  1.079482010e+01  4.113154970e+01  6.002930000e-01  9.082010000e-02  8.754970000e-02  6.134043743e-01  1.974090000e-01
 2.283480300e+01  8.148915600e+00  4.161056190e+01  4.338030000e-01  6.041560000e-02  3.956190000e-02  4.397729317e-01  1.931880000e-01
 2.282587400e+01  5.458230600e+00  4.200567841e+01  2.738740000e-01  3.383060000e-02  6.784130000e-04  2.759564053e-01  1.948910000e-01
 2.269371100e+01  2.726513660e+00  4.236521660e+01  1.247110000e-01  5.813660000e-03 -2.278340000e-02  1.269082955e-01  1.899790000e-01
 2.300250000e+01  2.901727400e+01  3.196026900e+01  1.757500000e+00  3.662740000e-01  1.212690000e-01  1.799352401e+00  2.800730000e-01
 2.323856000e+01  2.703666400e+01  3.340243200e+01  1.637560000e+00  3.366640000e-01  1.614320000e-01  1.679584976e+00  2.685740000e-01
 2.355282000e+01  2.492166500e+01  3.468801800e+01  1.503820000e+00  3.036650000e-01  1.850180000e-01  1.545289191e+00  2.553110000e-01
 2.389127000e+01  2.269875300e+01  3.583607100e+01  1.359270000e+00  2.677530000e-01  1.920710000e-01  1.398641438e+00  2.411590000e-01
 2.421954000e+01  2.038898800e+01  3.685674800e+01  1.206540000e+00  2.299880000e-01  1.837480000e-01  1.241932599e+00  2.269060000e-01
 2.451698000e+01  1.800567000e+01  3.775712300e+01  1.047980000e+00  1.916700000e-01  1.621230000e-01  1.077628571e+00  2.133390000e-01
 2.477381100e+01  1.556211700e+01  3.854006500e+01  8.858110000e-01  1.541170000e-01  1.300650000e-01  9.084767920e-01  2.012910000e-01
 2.498429800e+01  1.306453200e+01  3.920723840e+01  7.222980000e-01  1.185320000e-01  9.123840000e-02  7.376236720e-01  1.916310000e-01
 2.514491600e+01  1.052091930e+01  3.976413610e+01  5.599160000e-01  8.591930000e-02  5.013610000e-02  5.686841669e-01  1.852060000e-01
 2.524456000e+01  7.935270300e+00  4.021917440e+01  4.015600000e-01  5.687030000e-02  1.217440000e-02  4.057497759e-01  1.824630000e-01
 2.526098000e+01  5.312032500e+00  4.059781180e+01  2.509800000e-01  3.173250000e-02 -1.618820000e-02  2.534955025e-01  1.849470000e-01
 2.517017800e+01  2.653962760e+00  4.094629060e+01  1.121780000e-01  5.462760000e-03 -2.970940000e-02  1.161739811e-01  1.800280000e-01
 2.503582000e+01  2.833985400e+01  3.110016760e+01  1.677820000e+00  3.628540000e-01  8.916760000e-02  1.718922290e+00  2.571880000e-01
 2.530504000e+01  2.642159500e+01  3.242647900e+01  1.562040000e+00  3.305950000e-01  1.204790000e-01  1.601179942e+00  2.465700000e-01
 2.565811000e+01  2.435739800e+01  3.360140000e+01  1.432110000e+00  2.953980000e-01  1.374000000e-01  1.468699353e+00  2.344450000e-01
 2.603844000e+01  2.218106900e+01  3.465039700e+01  1.291440000e+00  2.580690000e-01  1.403970000e-01  1.324435049e+00  2.216570000e-01
 2.640499000e+01  1.991575400e+01  3.558484600e+01  1.142990000e+00  2.197540000e-01  1.308460000e-01  1.171255154e+00  2.089670000e-01
 2.673932000e+01  1.757970000e+01  3.641080700e+01  9.893200000e-01  1.817000000e-01  1.108070000e-01  1.011952145e+00  1.971270000e-01
 2.702777000e+01  1.518507500e+01  3.713096920e+01  8.327700000e-01  1.450750000e-01  8.296920000e-02  8.493741912e-01  1.868920000e-01
 2.726669800e+01  1.274089200e+01  3.774763780e+01  6.756980000e-01  1.108920000e-01  5.063780000e-02  6.866068815e-01  1.790070000e-01
 2.745066000e+01  1.025396630e+01  3.826476500e+01  5.206600000e-01  7.996630000e-02  1.776500000e-02  5.270645501e-01  1.741380000e-01
 2.757262200e+01  7.730327200e+00  3.869104130e+01  3.706220000e-01  5.272720000e-02 -1.095870000e-02  3.745142422e-01  1.725460000e-01
 2.761428700e+01  5.173758100e+00  3.904896120e+01  2.292870000e-01  2.935810000e-02 -3.003880000e-02  2.331024580e-01  1.755570000e-01
 2.756246700e+01  2.585897530e+00  3.938093030e+01  1.004670000e-01  4.997530000e-03 -3.506970000e-02  1.065292319e-01  1.706110000e-01
 2.691485000e+01  2.768107700e+01  3.017914010e+01  1.601850000e+00  3.510770000e-01  5.514010000e-02  1.640798255e+00  2.371490000e-01
 2.723125000e+01  2.585244500e+01  3.135203380e+01  1.491250000e+00  3.184450000e-01  7.903380000e-02  1.526918505e+00  2.274670000e-01
 2.763942000e+01  2.385082600e+01  3.239903200e+01  1.365420000e+00  2.828260000e-01  9.103200000e-02  1.397372229e+00  2.163720000e-01
 2.806957000e+01  2.172337500e+01  3.334172060e+01  1.228570000e+00  2.453750000e-01  9.172060000e-02  1.256187010e+00  2.047540000e-01
 2.848319000e+01  1.950246300e+01  3.418636150e+01  1.084190000e+00  2.074630000e-01  8.236150000e-02  1.106929207e+00  1.933780000e-01
 2.885813400e+01  1.720936200e+01  3.493587480e+01  9.351340000e-01  1.703620000e-01  6.487480000e-02  9.527368727e-01  1.829670000e-01
 2.918289900e+01  1.485915700e+01  3.559269290e+01  7.838990000e-01  1.351570000e-01  4.169290000e-02  7.965571886e-01  1.742100000e-01
 2.945292400e+01  1.246272700e+01  3.615775130e+01  6.329240000e-01  1.027270000e-01  1.575130000e-02  6.413998205e-01  1.677380000e-01
 2.966380400e+01  1.002613460e+01  3.663249494e+01  4.848040000e-01  7.373460000e-02 -9.505060000e-03  4.904712589e-01  1.640660000e-01
 2.980851300e+01  7.556675000e+00  3.702796340e+01  3.425130000e-01  4.847500000e-02 -3.003660000e-02  3.472278476e-01  1.633320000e-01
 2.987664700e+01  5.057470300e+00  3.736183570e+01  2.096470000e-01  2.697030000e-02 -4.116430000e-02  2.153456786e-01  1.666930000e-01
 2.986090140e+01  2.528887650e+00  3.767288970e+01  8.990140000e-02  4.487650000e-03 -3.911030000e-02  9.814283617e-02  1.617340000e-01
 2.854814000e+01  2.715693700e+01  2.920294840e+01  1.538140000e+00  3.369370000e-01  2.194840000e-02  1.574764406e+00  2.210640000e-01
 2.896007000e+01  2.544241900e+01  3.016199770e+01  1.433070000e+00  3.054190000e-01  3.899770000e-02  1.465773247e+00  2.119350000e-01
 2.945274000e+01  2.350615400e+01  3.105744750e+01  1.310740000e+00  2.701540000e-01  4.744750000e-02  1.339131732e+00  2.014620000e-01
 2.995484000e+01  2.141903400e+01  3.188617670e+01  1.176840000e+00  2.330340000e-01  4.717670000e-02  1.200617704e+00  1.906210000e-01
 3.042857000e+01  1.922875400e+01  3.264208810e+01  1.035570000e+00  1.957540000e-01  3.908810000e-02  1.054633933e+00  1.801770000e-01
 3.085409800e+01  1.696467800e+01  3.331977210e+01  8.900980000e-01  1.596780000e-01  2.477210000e-02  9.046464338e-01  1.708200000e-01
 3.122207500e+01  1.464286700e+01  3.391535271e+01  7.430750000e-01  1.258670000e-01  6.352710000e-03  7.536864827e-01  1.631610000e-01
 3.152901500e+01  1.227710550e+01  3.443040950e+01  5.970150000e-01  9.510550000e-02 -1.359050000e-02  6.046955168e-01  1.577290000e-01
 3.177054000e+01  9.873537600e+00  3.486494230e+01  4.545400000e-01  6.793760000e-02 -3.205770000e-02  4.607057903e-01  1.549280000e-01
 3.194163400e+01  7.439726200e+00  3.522746210e+01  3.186340000e-01  4.452620000e-02 -4.553790000e-02  3.249367766e-01  1.548050000e-01
 3.203680200e+01  4.978769800e+00  3.553698100e+01  1.928020000e-01  2.476980000e-02 -5.001900000e-02  2.007188445e-01  1.584020000e-01
 3.205571460e+01  2.490091910e+00  3.582687580e+01  8.071460000e-02  3.991910000e-03 -4.212420000e-02  9.113303586e-02  1.534450000e-01
 5.411900000e+00  4.781829300e+01  1.214290000e+00  2.516600000e+00 -1.867070000e-01 -1.675310000e+00  3.028993011e+00  3.730430000e-01
 5.501100000e+00  4.731698800e+01  4.120510000e+00  2.628200000e+00 -3.750120000e-01 -1.649790000e+00  3.125680131e+00  3.816800000e-01
 5.573390000e+00  4.667564300e+01  7.011630000e+00  2.726890000e+00 -5.613570000e-01 -1.619970000e+00  3.221079564e+00  3.879420000e-01
 5.625970000e+00  4.588735700e+01  9.878910000e+00  2.811370000e+00 -7.346430000e-01 -1.584090000e+00  3.309507931e+00  3.934580000e-01
 5.654710000e+00  4.495752000e+01  1.271571000e+01  2.878010000e+00 -8.834800000e-01 -1.538290000e+00  3.380800881e+00  3.988390000e-01
 5.655780000e+00  4.389753200e+01  1.551760000e+01  2.922980000e+00 -9.974680000e-01 -1.477400000e+00  3.423662549e+00  4.043010000e-01
 5.625310000e+00  4.272052000e+01  1.827777000e+01  2.942410000e+00 -1.068480000e+00 -1.396230000e+00  3.427664559e+00  4.098430000e-01
 5.560810000e+00  4.143328000e+01  2.099059000e+01  2.933310000e+00 -1.091720000e+00 -1.290410000e+00  3.385456850e+00  4.153770000e-01
 5.462030000e+00  4.004171000e+01  2.365076000e+01  2.893830000e+00 -1.066290000e+00 -1.157240000e+00  3.293999218e+00  4.207790000e-01
 5.333210000e+00  3.854972900e+01  2.624781400e+01  2.823810000e+00 -9.952710000e-01 -9.961860000e-01  3.155448277e+00  4.259270000e-01
 5.184850000e+00  3.695442700e+01  2.876878900e+01  2.724850000e+00 -8.855730000e-01 -8.092110000e-01  2.977225135e+00  4.307540000e-01
 5.029540000e+00  3.524918800e+01  3.119883700e+01  2.600340000e+00 -7.478120000e-01 -6.011630000e-01  2.771712080e+00  4.356330000e-01
 8.231550000e+00  4.777845590e+01  1.324910000e+00  2.450150000e+00  8.745590000e-02 -1.537690000e+00  2.894023858e+00  3.656510000e-01
 8.284520000e+00  4.730226060e+01  4.222480000e+00  2.546620000e+00 -5.173940000e-02 -1.495720000e+00  2.953832884e+00  3.777050000e-01
 8.316770000e+00  4.670058600e+01  7.109160000e+00  2.630370000e+00 -1.914140000e-01 -1.447040000e+00  3.008223798e+00  3.862520000e-01
 8.324060000e+00  4.595305600e+01  9.974510000e+00  2.700460000e+00 -3.239440000e-01 -1.391490000e+00  3.055105292e+00  3.931260000e-01
 8.303550000e+00  4.506089500e+01  1.281121000e+01  2.754850000e+00 -4.411050000e-01 -1.326790000e+00  3.089359780e+00  3.991530000e-01
 8.252340000e+00  4.403079200e+01  1.561009000e+01  2.790740000e+00 -5.352080000e-01 -1.249910000e+00  3.104344111e+00  4.047480000e-01
 8.167810000e+00  4.287296500e+01  1.836541000e+01  2.805410000e+00 -6.000350000e-01 -1.157590000e+00  3.093603381e+00  4.101190000e-01
 8.048610000e+00  4.159442600e+01  2.106785000e+01  2.796510000e+00 -6.315740000e-01 -1.047150000e+00  3.052192166e+00  4.153310000e-01
 7.896270000e+00  4.020162100e+01  2.371004300e+01  2.762370000e+00 -6.283790000e-01 -9.169570000e-01  2.977643082e+00  4.203570000e-01
 7.719620000e+00  3.869962000e+01  2.628133800e+01  2.702220000e+00 -5.913800000e-01 -7.666620000e-01  2.870451856e+00  4.250820000e-01
 7.537110000e+00  3.708895100e+01  2.876845800e+01  2.616610000e+00 -5.240490000e-01 -5.975420000e-01  2.734653852e+00  4.293380000e-01
 7.368740000e+00  3.536491200e+01  3.115680500e+01  2.507440000e+00 -4.330880000e-01 -4.131950000e-01  2.577896561e+00  4.336870000e-01
 1.103831000e+01  4.752749200e+01  1.422530000e+00  2.390610000e+00  2.944920000e-01 -1.410470000e+00  2.791266259e+00  3.525300000e-01
 1.105866000e+01  4.708203100e+01  4.304700000e+00  2.474060000e+00  1.950310000e-01 -1.355900000e+00  2.827980690e+00  3.662400000e-01
 1.105491000e+01  4.651716640e+01  7.178470000e+00  2.545610000e+00  9.316640000e-02 -1.294030000e+00  2.857153109e+00  3.766750000e-01
 1.102146000e+01  4.580804889e+01  1.003310000e+01  2.604660000e+00 -5.951110000e-03 -1.224900000e+00  2.878310119e+00  3.852180000e-01
 1.095559000e+01  4.495248400e+01  1.285948000e+01  2.649590000e+00 -9.651600000e-02 -1.147520000e+00  2.889021401e+00  3.925580000e-01
 1.085505000e+01  4.395500000e+01  1.564881000e+01  2.678450000e+00 -1.730000000e-01 -1.060190000e+00  2.885831984e+00  3.990410000e-01
 1.071816000e+01  4.282327000e+01  1.839083100e+01  2.689160000e+00 -2.307300000e-01 -9.611690000e-01  2.865076558e+00  4.048580000e-01
 1.054429000e+01  4.156355400e+01  2.107695100e+01  2.679890000e+00 -2.664460000e-01 -8.490490000e-01  2.823771961e+00  4.100890000e-01
 1.033731000e+01  4.018359100e+01  2.369892800e+01  2.649110000e+00 -2.784090000e-01 -7.230720000e-01  2.760095738e+00  4.147170000e-01
 1.011065000e+01  3.868787000e+01  2.624284200e+01  2.595750000e+00 -2.661300000e-01 -5.831580000e-01  2.673727079e+00  4.186180000e-01
 9.891090000e+00  3.707830600e+01  2.869675200e+01  2.519590000e+00 -2.306940000e-01 -4.302480000e-01  2.566450239e+00  4.215840000e-01
 9.707110000e+00  3.535009700e+01  3.104387000e+01  2.421610000e+00 -1.759030000e-01 -2.671300000e-01  2.442641049e+00  4.243720000e-01
 1.381790000e+01  4.705323600e+01  1.504820000e+00  2.333900000e+00  4.412360000e-01 -1.293880000e+00  2.704792760e+00  3.352560000e-01
 1.380966000e+01  4.663812500e+01  4.362440000e+00  2.406660000e+00  3.731250000e-01 -1.231160000e+00  2.728917288e+00  3.496360000e-01
 1.377379000e+01  4.610727800e+01  7.213610000e+00  2.468790000e+00  3.012780000e-01 -1.160790000e+00  2.744654062e+00  3.612190000e-01
 1.370342000e+01  4.543506900e+01  1.004771000e+01  2.519420000e+00  2.290690000e-01 -1.083290000e+00  2.751993272e+00  3.710330000e-01
 1.359631000e+01  4.461745200e+01  1.285373400e+01  2.557310000e+00  1.604520000e-01 -9.982660000e-01  2.749929869e+00  3.795450000e-01
 1.344986000e+01  4.365632060e+01  1.562292200e+01  2.580860000e+00  9.932060000e-02 -9.050780000e-01  2.736762523e+00  3.869740000e-01
 1.326249000e+01  4.255808120e+01  1.834498600e+01  2.588490000e+00  4.908120000e-02 -8.030140000e-01  2.710631094e+00  3.934160000e-01
 1.303470000e+01  4.132833540e+01  2.100836600e+01  2.578700000e+00  1.233540000e-02 -6.916340000e-01  2.669869555e+00  3.988950000e-01
 1.277313000e+01  3.997386624e+01  2.360514400e+01  2.550130000e+00 -9.133760000e-03 -5.708560000e-01  2.613259079e+00  4.033470000e-01
 1.249553000e+01  3.850099320e+01  2.612007800e+01  2.501530000e+00 -1.400680000e-02 -4.409220000e-01  2.540130064e+00  4.065930000e-01
 1.223718000e+01  3.690916395e+01  2.853831800e+01  2.432180000e+00 -1.836050000e-03 -3.026820000e-01  2.450942536e+00  4.083750000e-01
 1.203505000e+01  3.519158340e+01  3.084252400e+01  2.342350000e+00  2.558340000e-02 -1.584760000e-01  2.347844261e+00  4.095750000e-01
 1.655428000e+01  4.636216100e+01  1.571570000e+00  2.275280000e+00  5.361610000e-01 -1.187530000e+00  2.621944926e+00  3.151060000e-01
 1.652036000e+01  4.597321000e+01  4.395530000e+00  2.339360000e+00  4.922100000e-01 -1.120170000e+00  2.640010743e+00  3.293540000e-01
 1.645695000e+01  4.547373200e+01  7.214280000e+00  2.393950000e+00  4.437320000e-01 -1.045420000e+00  2.649678786e+00  3.413560000e-01
 1.635408000e+01  4.483882500e+01  1.001724500e+01  2.438080000e+00  3.928250000e-01 -9.637550000e-01  2.650918570e+00  3.518250000e-01
 1.620858000e+01  4.406011500e+01  1.279366600e+01  2.470580000e+00  3.421150000e-01 -8.753340000e-01  2.643296771e+00  3.610610000e-01
 1.601815000e+01  4.314023200e+01  1.553388400e+01  2.490150000e+00  2.942320000e-01 -7.801160000e-01  2.626023699e+00  3.691590000e-01
 1.578348000e+01  4.208360400e+01  1.822586000e+01  2.495480000e+00  2.516040000e-01 -6.781400000e-01  2.598191460e+00  3.761280000e-01
 1.550435000e+01  4.089523000e+01  2.086039300e+01  2.485350000e+00  2.162300000e-01 -5.696070000e-01  2.558939657e+00  3.819170000e-01
 1.518852000e+01  3.958077100e+01  2.342605100e+01  2.458520000e+00  1.897710000e-01 -4.549490000e-01  2.507451339e+00  3.863950000e-01
 1.486065000e+01  3.814588600e+01  2.590829700e+01  2.413650000e+00  1.738860000e-01 -3.347030000e-01  2.442942644e+00  3.893040000e-01
 1.456263000e+01  3.658684600e+01  2.828818000e+01  2.349630000e+00  1.698460000e-01 -2.098200000e-01  2.365086306e+00  3.903050000e-01
 1.434110000e+01  3.489617500e+01  3.054554460e+01  2.266100000e+00  1.771750000e-01 -8.245540000e-02  2.274510735e+00  3.902760000e-01
 1.923438000e+01  4.546217400e+01  1.623450000e+00  2.211380000e+00  5.881740000e-01 -1.090450000e+00  2.534804008e+00  2.932630000e-01
 1.917811000e+01  4.509737500e+01  4.404980000e+00  2.268110000e+00  5.623750000e-01 -1.021520000e+00  2.550312083e+00  3.067990000e-01
 1.908850000e+01  4.462866900e+01  7.182198000e+00  2.316500000e+00  5.316690000e-01 -9.456020000e-01  2.557930280e+00  3.185960000e-01
 1.895538000e+01  4.403032800e+01  9.944756000e+00  2.355380000e+00  4.973280000e-01 -8.632440000e-01  2.557408901e+00  3.291430000e-01
 1.877468000e+01  4.329401100e+01  1.268217700e+01  2.383680000e+00  4.610110000e-01 -7.748230000e-01  2.548492136e+00  3.386120000e-01
 1.854425000e+01  4.242043500e+01  1.538327500e+01  2.400250000e+00  4.244350000e-01 -6.807250000e-01  2.530757131e+00  3.470190000e-01
 1.826501000e+01  4.141225800e+01  1.803959000e+01  2.404010000e+00  3.892580000e-01 -5.814100000e-01  2.503761861e+00  3.543040000e-01
 1.793691000e+01  4.027596500e+01  2.063749500e+01  2.393910000e+00  3.569650000e-01 -4.775050000e-01  2.467030629e+00  3.603600000e-01
 1.756981000e+01  3.901496600e+01  2.316723500e+01  2.368810000e+00  3.289660000e-01 -3.697650000e-01  2.419959834e+00  3.649880000e-01
 1.719331000e+01  3.763191200e+01  2.561200200e+01  2.327310000e+00  3.069120000e-01 -2.589980000e-01  2.361704210e+00  3.678410000e-01
 1.685691000e+01  3.612035000e+01  2.794964900e+01  2.267910000e+00  2.923500000e-01 -1.463510000e-01  2.291353946e+00  3.684810000e-01
 1.661468000e+01  3.446958500e+01  3.015601760e+01  2.189680000e+00  2.855850000e-01 -3.398240000e-02  2.208486382e+00  3.676760000e-01
 2.184613000e+01  4.436697600e+01  1.661600000e+00  2.140130000e+00  6.059760000e-01 -1.001800000e+00  2.439460303e+00  2.707810000e-01
 2.176843000e+01  4.402444100e+01  4.392773000e+00  2.190430000e+00  5.934410000e-01 -9.336270000e-01  2.453938708e+00  2.832240000e-01
 2.165547000e+01  4.358594100e+01  7.119883000e+00  2.233470000e+00  5.759410000e-01 -8.591170000e-01  2.461336689e+00  2.943680000e-01
 2.149497000e+01  4.302522900e+01  9.833279000e+00  2.267970000e+00  5.542290000e-01 -7.787210000e-01  2.461150971e+00  3.045380000e-01
 2.128189000e+01  4.233331900e+01  1.252304000e+01  2.292890000e+00  5.293190000e-01 -6.929600000e-01  2.453103487e+00  3.138300000e-01
 2.101422000e+01  4.151126300e+01  1.517859100e+01  2.307220000e+00  5.022630000e-01 -6.024090000e-01  2.436889175e+00  3.222110000e-01
 2.069304000e+01  4.056014400e+01  1.778922700e+01  2.310040000e+00  4.741440000e-01 -5.077730000e-01  2.412245998e+00  3.295860000e-01
 2.031943000e+01  3.948500400e+01  2.034511600e+01  2.300430000e+00  4.460040000e-01 -4.098840000e-01  2.378844813e+00  3.358090000e-01
 1.990533000e+01  3.828994700e+01  2.283331000e+01  2.277330000e+00  4.189470000e-01 -3.096900000e-01  2.336162754e+00  3.406290000e-01
 1.948223000e+01  3.697136700e+01  2.523679500e+01  2.239230000e+00  3.943670000e-01 -2.082050000e-01  2.283205126e+00  3.436150000e-01
 1.910924000e+01  3.552172300e+01  2.752816900e+01  2.184240000e+00  3.737230000e-01 -1.068310000e-01  2.218554962e+00  3.442280000e-01
 1.884585000e+01  3.392368600e+01  2.968017051e+01  2.110850000e+00  3.576860000e-01 -7.829490000e-03  2.140954997e+00  3.430520000e-01
 2.437658000e+01  4.308757000e+01  1.687262000e+00  2.060580000e+00  5.975700000e-01 -9.206380000e-01  2.334663609e+00  2.485120000e-01
 2.428011000e+01  4.276742400e+01  4.360855000e+00  2.105110000e+00  5.944240000e-01 -8.550450000e-01  2.348601702e+00  2.596690000e-01
 2.414542000e+01  4.235946800e+01  7.030870000e+00  2.143420000e+00  5.864680000e-01 -7.838300000e-01  2.356392047e+00  2.698860000e-01
 2.395914000e+01  4.183718500e+01  9.687625000e+00  2.174140000e+00  5.741850000e-01 -7.073750000e-01  2.357318931e+00  2.793810000e-01
 2.371629000e+01  4.119415900e+01  1.232279100e+01  2.196290000e+00  5.581590000e-01 -6.262090000e-01  2.351035718e+00  2.882050000e-01
 2.341498000e+01  4.042799300e+01  1.492501200e+01  2.208980000e+00  5.389930000e-01 -5.409880000e-01  2.337257819e+00  2.963030000e-01
 2.305540000e+01  3.954034000e+01  1.748451100e+01  2.211400000e+00  5.173400000e-01 -4.524890000e-01  2.315745437e+00  3.035700000e-01
 2.264074000e+01  3.853588400e+01  1.999238300e+01  2.202740000e+00  4.938840000e-01 -3.616170000e-01  2.286209039e+00  3.098460000e-01
 2.218200000e+01  3.741539400e+01  2.243561400e+01  2.182000000e+00  4.693940000e-01 -2.693860000e-01  2.248115554e+00  3.148450000e-01
 2.171653000e+01  3.617488800e+01  2.479302900e+01  2.147530000e+00  4.448880000e-01 -1.769710000e-01  2.200256614e+00  3.180660000e-01
 2.130803000e+01  3.479848500e+01  2.703397780e+01  2.097030000e+00  4.214850000e-01 -8.602220000e-02  2.140697140e+00  3.188730000e-01
 2.102439000e+01  3.326596100e+01  2.912702814e+01  2.028390000e+00  3.999610000e-01  1.028140000e-03  2.067446698e+00  3.176360000e-01
 2.681763000e+01  4.163699100e+01  1.702232000e+00  1.972630000e+00  5.699910000e-01 -8.460680000e-01  2.220808393e+00  2.270800000e-01
 2.670192000e+01  4.133922900e+01  4.313160000e+00  2.011920000e+00  5.732290000e-01 -7.843400000e-01  2.234189519e+00  2.369060000e-01
 2.654697000e+01  4.096195400e+01  6.920651000e+00  2.045970000e+00  5.719540000e-01 -7.177490000e-01  2.242384500e+00  2.460780000e-01
 2.633738000e+01  4.048153100e+01  9.515430000e+00  2.073380000e+00  5.665310000e-01 -6.465700000e-01  2.244529965e+00  2.547430000e-01
 2.606725000e+01  3.988928900e+01  1.208969700e+01  2.093250000e+00  5.572890000e-01 -5.713030000e-01  2.240235191e+00  2.629270000e-01
 2.573477000e+01  3.918352900e+01  1.463442200e+01  2.104770000e+00  5.445290000e-01 -4.925780000e-01  2.229170624e+00  2.705750000e-01
 2.534125000e+01  3.836560700e+01  1.713884400e+01  2.107250000e+00  5.286070000e-01 -4.111560000e-01  2.211103159e+00  2.775870000e-01
 2.488796000e+01  3.743891600e+01  1.959409300e+01  2.099960000e+00  5.099160000e-01 -3.279070000e-01  2.185719408e+00  2.838080000e-01
 2.438993000e+01  3.640291500e+01  2.198716000e+01  2.081930000e+00  4.889150000e-01 -2.438400000e-01  2.152423831e+00  2.889450000e-01
 2.388439000e+01  3.524817900e+01  2.429678200e+01  2.051390000e+00  4.661790000e-01 -1.602180000e-01  2.109785202e+00  2.924510000e-01
 2.344259000e+01  3.395640800e+01  2.648405160e+01  2.005590000e+00  4.424080000e-01 -7.894840000e-02  2.055322100e+00  2.936040000e-01
 2.313593000e+01  3.250328100e+01  2.851035863e+01  1.941930000e+00  4.182810000e-01 -2.641370000e-03  1.986468750e+00  2.925340000e-01
 2.915973000e+01  4.002617000e+01  1.710636000e+00  1.876730000e+00  5.291700000e-01 -7.771640000e-01  2.099076050e+00  2.068990000e-01
 2.902629000e+01  3.975153100e+01  4.257289000e+00  1.911290000e+00  5.365310000e-01 -7.201110000e-01  2.111742132e+00  2.154620000e-01
 2.885151000e+01  3.940773900e+01  6.800883000e+00  1.941510000e+00  5.397390000e-01 -6.589170000e-01  2.120129921e+00  2.235930000e-01
 2.862003000e+01  3.896915200e+01  9.333131000e+00  1.966030000e+00  5.391520000e-01 -5.937690000e-01  2.123327687e+00  2.313920000e-01
 2.832400000e+01  3.842995400e+01  1.184591000e+01  1.984000000e+00  5.349540000e-01 -5.250900000e-01  2.120884554e+00  2.388780000e-01
 2.796273000e+01  3.778726300e+01  1.433055200e+01  1.994730000e+00  5.272630000e-01 -4.534480000e-01  2.112479380e+00  2.459990000e-01
 2.753561000e+01  3.704322800e+01  1.677847700e+01  1.997610000e+00  5.162280000e-01 -3.795230000e-01  2.097850035e+00  2.526700000e-01
 2.704800000e+01  3.619803300e+01  1.918089700e+01  1.992000000e+00  5.020330000e-01 -3.041030000e-01  2.076675171e+00  2.587520000e-01
 2.651194000e+01  3.525085900e+01  2.152386600e+01  1.976940000e+00  4.848590000e-01 -2.281340000e-01  2.048273696e+00  2.639770000e-01
 2.596654000e+01  3.419090300e+01  2.378204800e+01  1.950540000e+00  4.649030000e-01 -1.529520000e-01  2.011003582e+00  2.678000000e-01
 2.548688000e+01  3.299641200e+01  2.591232870e+01  1.909880000e+00  4.424120000e-01 -8.067130000e-02  1.962110560e+00  2.694420000e-01
 2.515100000e+01  3.164198400e+01  2.786282340e+01  1.852000000e+00  4.179840000e-01 -1.417660000e-02  1.898635194e+00  2.687700000e-01
 3.139465000e+01  3.826595000e+01  1.720720000e+00  1.773650000e+00  4.799500000e-01 -7.129800000e-01  1.970920294e+00  1.882110000e-01
 3.124405000e+01  3.801677900e+01  4.209774000e+00  1.804050000e+00  4.897790000e-01 -6.609260000e-01  1.982751384e+00  1.956550000e-01
 3.104990000e+01  3.770583500e+01  6.696328000e+00  1.830900000e+00  4.958350000e-01 -6.053720000e-01  1.991110850e+00  2.028380000e-01
 3.079491000e+01  3.730952100e+01  9.172178000e+00  1.852910000e+00  4.985210000e-01 -5.464220000e-01  1.995087882e+00  2.098340000e-01
 3.047231000e+01  3.682295500e+01  1.162957100e+01  1.869310000e+00  4.979550000e-01 -4.844290000e-01  1.994229303e+00  2.166530000e-01
 3.008150000e+01  3.624214800e+01  1.406112700e+01  1.879500000e+00  4.941480000e-01 -4.198730000e-01  1.988214232e+00  2.232550000e-01
 2.962195000e+01  3.557012000e+01  1.645866200e+01  1.882950000e+00  4.871200000e-01 -3.533380000e-01  1.976773720e+00  2.295660000e-01
 2.909710000e+01  3.480590500e+01  1.881248900e+01  1.879100000e+00  4.769050000e-01 -2.855110000e-01  1.959584578e+00  2.354690000e-01
 2.852005000e+01  3.394950000e+01  2.110972600e+01  1.867050000e+00  4.635000000e-01 -2.172740000e-01  1.935953497e+00  2.407320000e-01
 2.792906000e+01  3.298882300e+01  2.331896900e+01  1.845060000e+00  4.468230000e-01 -1.500310000e-01  1.904312605e+00  2.449040000e-01
 2.739639000e+01  3.190897600e+01  2.538786550e+01  1.810390000e+00  4.269760000e-01 -8.613450000e-02  1.862052526e+00  2.472510000e-01
 2.701053000e+01  3.069429000e+01  2.724725720e+01  1.760530000e+00  4.042900000e-01 -2.874280000e-02  1.806583082e+00  2.473230000e-01
 3.351529000e+01  3.636714800e+01  1.746205000e+00  1.664290000e+00  4.261480000e-01 -6.525950000e-01  1.837755032e+00  1.711460000e-01
 3.334818000e+01  3.614427200e+01  4.195970000e+00  1.691180000e+00  4.372720000e-01 -6.054300000e-01  1.848740674e+00  1.776700000e-01
 3.313414000e+01  3.586399200e+01  6.643316000e+00  1.715140000e+00  4.449920000e-01 -5.552840000e-01  1.856896179e+00  1.840660000e-01
 3.285297000e+01  3.550878500e+01  9.080391000e+00  1.734970000e+00  4.497850000e-01 -5.022090000e-01  1.861354702e+00  1.903920000e-01
 3.250101000e+01  3.506974200e+01  1.149951100e+01  1.750010000e+00  4.517420000e-01 -4.464890000e-01  1.861708426e+00  1.966550000e-01
 3.207575000e+01  3.454682100e+01  1.389347300e+01  1.759750000e+00  4.508210000e-01 -3.885270000e-01  1.857663281e+00  2.028220000e-01
 3.157673000e+01  3.393996400e+01  1.625418100e+01  1.763730000e+00  4.469640000e-01 -3.288190000e-01  1.848957075e+00  2.088300000e-01
 3.100750000e+01  3.325012300e+01  1.857403300e+01  1.761500000e+00  4.401230000e-01 -2.679670000e-01  1.835319269e+00  2.145800000e-01
 3.038035000e+01  3.247821100e+01  2.083517800e+01  1.752350000e+00  4.302110000e-01 -2.068220000e-01  1.816201356e+00  2.198890000e-01
 2.972707000e+01  3.162213400e+01  2.300317100e+01  1.735070000e+00  4.171340000e-01 -1.468290000e-01  1.790538308e+00  2.244360000e-01
 2.911123000e+01  3.068501500e+01  2.501041680e+01  1.708230000e+00  4.010150000e-01 -9.058320000e-02  1.757005429e+00  2.277550000e-01
 2.862466000e+01  2.967966000e+01  2.675826870e+01  1.670660000e+00  3.826600000e-01 -4.173130000e-02  1.714431396e+00  2.292490000e-01
 3.737482000e+01  3.217134200e+01  1.867156000e+00  1.428820000e+00  3.163420000e-01 -5.403440000e-01  1.559990542e+00  1.417610000e-01
 3.910163000e+01  2.989397100e+01  1.960587000e+00  1.303630000e+00  2.639710000e-01 -4.877130000e-01  1.416684805e+00  1.292590000e-01
 4.068585000e+01  2.750897700e+01  2.063385000e+00  1.173850000e+00  2.149770000e-01 -4.371150000e-01  1.270908516e+00  1.180640000e-01
 4.212208000e+01  2.502607600e+01  2.169432000e+00  1.040080000e+00  1.700760000e-01 -3.883680000e-01  1.123174944e+00  1.080980000e-01
 4.340802300e+01  2.245687000e+01  2.274118000e+00  9.030230000e-01  1.298700000e-01 -3.412820000e-01  9.740586014e-01  9.935290000e-02
 4.453874600e+01  1.981087520e+01  2.374333000e+00  7.637460000e-01  9.487520000e-02 -2.956670000e-01  8.244563245e-01  9.191420000e-02
 4.551080600e+01  1.709751570e+01  2.468552000e+00  6.238060000e-01  6.551570000e-02 -2.513480000e-01  6.757233529e-01  8.599860000e-02
 4.632249600e+01  1.432906870e+01  2.556156000e+00  4.854960000e-01  4.206870000e-02 -2.081440000e-01  5.299057145e-01  8.203460000e-02
 4.697290300e+01  1.151563900e+01  2.637068000e+00  3.519030000e-01  2.463900000e-02 -1.659320000e-01  3.898412887e-01  8.072510000e-02
 4.746647100e+01  8.666182400e+00  2.711859000e+00  2.274710000e-01  1.298240000e-02 -1.244410000e-01  2.596096320e-01  8.318380000e-02
 4.781153300e+01  5.792319480e+00  2.781222900e+00  1.175330000e-01  6.719480000e-03 -8.357710000e-02  1.443755144e-01  9.037850000e-02
 4.803770290e+01  2.895815680e+00  2.847851300e+00  3.170290000e-02 -2.184320000e-03 -4.294870000e-02  5.342692162e-02  8.582030000e-02
 3.716186000e+01  3.198836400e+01  4.314315000e+00  1.449860000e+00  3.283640000e-01 -5.017850000e-01  1.568982193e+00  1.469760000e-01
 3.886615000e+01  2.972786000e+01  4.442854000e+00  1.322150000e+00  2.758600000e-01 -4.530460000e-01  1.424580654e+00  1.340090000e-01
 4.042589000e+01  2.735653100e+01  4.592690000e+00  1.189890000e+00  2.265310000e-01 -4.063100000e-01  1.277592393e+00  1.224430000e-01
 4.184169000e+01  2.488708500e+01  4.751474000e+00  1.053690000e+00  1.810850000e-01 -3.615260000e-01  1.128607745e+00  1.121760000e-01
 4.310931800e+01  2.233014500e+01  4.908943000e+00  9.143180000e-01  1.401450000e-01 -3.185570000e-01  9.783131341e-01  1.031940000e-01
 4.422490600e+01  1.969624900e+01  5.058806000e+00  7.729060000e-01  1.042490000e-01 -2.771940000e-01  8.277004606e-01  9.557380000e-02
 4.518508100e+01  1.699682950e+01  5.197924000e+00  6.310810000e-01  7.382950000e-02 -2.371760000e-01  6.782082856e-01  8.952420000e-02
 4.598920400e+01  1.424216290e+01  5.324884000e+00  4.912040000e-01  4.916290000e-02 -1.982160000e-01  5.319661108e-01  8.545550000e-02
 4.663536200e+01  1.144234880e+01  5.439726000e+00  3.563620000e-01  3.034880000e-02 -1.599740000e-01  3.917991901e-01  8.402880000e-02
 4.712803700e+01  8.609662000e+00  5.543068000e+00  2.310370000e-01  1.706200000e-02 -1.220320000e-01  2.618415861e-01  8.621360000e-02
 4.748034900e+01  5.753194950e+00  5.637137900e+00  1.203490000e-01  8.994950000e-03 -8.386210000e-02  1.469613648e-01  9.310970000e-02
 4.772865080e+01  2.875735440e+00  5.727172200e+00  3.365080000e-02 -1.364560000e-03 -4.462780000e-02  5.590955998e-02  8.887300000e-02
 3.688981000e+01  3.175556700e+01  6.756500000e+00  1.468810000e+00  3.375670000e-01 -4.610000000e-01  1.576031502e+00  1.522390000e-01
 3.856387000e+01  2.951512400e+01  6.918563000e+00  1.338870000e+00  2.851240000e-01 -4.164370000e-01  1.430834843e+00  1.388590000e-01
 4.009340000e+01  2.716062300e+01  7.114081000e+00  1.204400000e+00  2.356230000e-01 -3.738190000e-01  1.282902258e+00  1.269630000e-01
 4.148002000e+01  2.470576900e+01  7.324255000e+00  1.066020000e+00  1.897690000e-01 -3.332450000e-01  1.132900324e+00  1.164310000e-01
 4.272058300e+01  2.216521800e+01  7.533464000e+00  9.245830000e-01  1.482180000e-01 -2.946360000e-01  9.816479368e-01  1.072470000e-01
 4.381429100e+01  1.954754400e+01  7.731844000e+00  7.812910000e-01  1.115440000e-01 -2.577560000e-01  8.302384273e-01  9.949380000e-02
 4.475685000e+01  1.686520530e+01  7.914537000e+00  6.378500000e-01  8.020530000e-02 -2.222630000e-01  6.802105217e-01  9.337580000e-02
 4.554565700e+01  1.412849830e+01  8.079680000e+00  4.966570000e-01  5.449830000e-02 -1.877200000e-01  5.337387364e-01  8.928330000e-02
 4.618283900e+01  1.134951840e+01  8.226874000e+00  3.608390000e-01  3.451840000e-02 -1.536260000e-01  3.936969034e-01  8.781830000e-02
 4.667074900e+01  8.537286600e+00  8.357392000e+00  2.347490000e-01  1.998660000e-02 -1.193080000e-01  2.640851303e-01  8.982670000e-02
 4.702250500e+01  5.703723400e+00  8.474818500e+00  1.235050000e-01  1.062340000e-02 -8.388150000e-02  1.496744724e-01  9.640770000e-02
 4.727678160e+01  2.850471154e+00  8.586885100e+00  3.578160000e-02 -8.288460000e-04 -4.611490000e-02  5.837459967e-02  9.230600000e-02
 3.653973000e+01  3.145858500e+01  9.186823000e+00  1.484730000e+00  3.445850000e-01 -4.179770000e-01  1.580464099e+00  1.576020000e-01
 3.817496000e+01  2.924150800e+01  9.380846000e+00  1.352960000e+00  2.925080000e-01 -3.778540000e-01  1.434864222e+00  1.438620000e-01
 3.966464000e+01  2.690709400e+01  9.620501000e+00  1.216640000e+00  2.430940000e-01 -3.395990000e-01  1.286326189e+00  1.316780000e-01
 4.101244000e+01  2.447306000e+01  9.880528000e+00  1.076440000e+00  1.970600000e-01 -3.034720000e-01  1.135628008e+00  1.209120000e-01
 4.221828700e+01  2.195210000e+01  1.013954500e+01  9.332870000e-01  1.551000000e-01 -2.694550000e-01  9.837106441e-01  1.115550000e-01
 4.328146900e+01  1.935582600e+01  1.038571800e+01  7.884690000e-01  1.178260000e-01 -2.372820000e-01  8.317866780e-01  1.036950000e-01
 4.419775700e+01  1.669673080e+01  1.060949000e+01  6.437570000e-01  8.573080000e-02 -2.065100000e-01  6.814831071e-01  9.753780000e-02
 4.496659200e+01  1.398412950e+01  1.081143900e+01  5.015920000e-01  5.912950000e-02 -1.765610000e-01  5.350370258e-01  9.345260000e-02
 4.558708500e+01  1.123014790e+01  1.098926200e+01  3.650850000e-01  3.814790000e-02 -1.467380000e-01  3.953155197e-01  9.198420000e-02
 4.606450200e+01  8.446433000e+00  1.114588300e+01  2.385020000e-01  2.253300000e-02 -1.161170000e-01  2.662218958e-01  9.384520000e-02
 4.641181800e+01  5.641907300e+00  1.128447330e+01  1.268180000e-01  1.200730000e-02 -8.352670000e-02  1.523275746e-01  1.000870000e-01
 4.666514810e+01  2.819172563e+00  1.141662910e+01  3.814810000e-02 -3.274370000e-04 -4.737090000e-02  6.082258557e-02  9.604460000e-02
 3.610514000e+01  3.109152000e+01  1.159809800e+01  1.497140000e+00  3.495200000e-01 -3.729020000e-01  1.581976078e+00  1.630790000e-01
 3.769204000e+01  2.890314600e+01  1.182255600e+01  1.364040000e+00  2.981460000e-01 -3.374440000e-01  1.436441649e+00  1.490380000e-01
 3.913231000e+01  2.659411700e+01  1.210423800e+01  1.226310000e+00  2.491170000e-01 -3.037620000e-01  1.287698275e+00  1.366110000e-01
 4.043171000e+01  2.418417200e+01  1.241271400e+01  1.084710000e+00  2.031720000e-01 -2.722860000e-01  1.136668074e+00  1.256470000e-01
 4.159426700e+01  2.168904400e+01  1.271993800e+01  9.402670000e-01  1.610440000e-01 -2.430620000e-01  9.844370661e-01  1.161430000e-01
 4.261733100e+01  1.912038200e+01  1.301021300e+01  7.943310000e-01  1.233820000e-01 -2.157870000e-01  8.323153758e-01  1.081980000e-01
 4.349974600e+01  1.648971080e+01  1.327408700e+01  6.487460000e-01  9.071080000e-02 -1.899130000e-01  6.820313551e-01  1.020200000e-01
 4.424097200e+01  1.380737320e+01  1.351029800e+01  5.059720000e-01  6.337320000e-02 -1.647020000e-01  5.358643262e-01  9.795780000e-02
 4.484009900e+01  1.108651850e+01  1.371674000e+01  3.690990000e-01  4.151850000e-02 -1.392600000e-01  3.966751886e-01  9.649750000e-02
 4.530326800e+01  8.336621200e+00  1.389656900e+01  2.422680000e-01  2.492120000e-02 -1.124310000e-01  2.682453724e-01  9.821520000e-02
 4.564030700e+01  5.567527100e+00  1.405524770e+01  1.303070000e-01  1.332710000e-02 -8.275230000e-02  1.549369840e-01  1.041120000e-01
 4.588670520e+01  2.781548167e+00  1.420565500e+01  4.070520000e-02  1.481670000e-04 -4.834500000e-02  6.319948010e-02  1.000850000e-01
 3.558471000e+01  3.065529800e+01  1.398293900e+01  1.505710000e+00  3.522980000e-01 -3.260610000e-01  1.580377253e+00  1.686520000e-01
 3.711484000e+01  2.850097600e+01  1.423555400e+01  1.371840000e+00  3.019760000e-01 -2.954460000e-01  1.435417301e+00  1.543780000e-01
 3.849623000e+01  2.622264900e+01  1.455850300e+01  1.233230000e+00  2.536490000e-01 -2.664970000e-01  1.286940053e+00  1.417650000e-01
 3.973873000e+01  2.384208500e+01  1.491117100e+01  1.090730000e+00  2.080850000e-01 -2.398290000e-01  1.136005832e+00  1.306440000e-01
 4.084646400e+01  2.137705200e+01  1.526345000e+01  9.454640000e-01  1.660520000e-01 -2.155500000e-01  9.838380174e-01  1.210240000e-01
 4.182186500e+01  1.884123600e+01  1.559567800e+01  7.988650000e-01  1.282360000e-01 -1.933220000e-01  8.318672704e-01  1.130170000e-01
 4.266283300e+01  1.624518970e+01  1.589852100e+01  6.528330000e-01  9.518970000e-02 -1.724790000e-01  6.819098256e-01  1.068340000e-01
 4.336983400e+01  1.360028160e+01  1.616587900e+01  5.098340000e-01  6.728160000e-02 -1.521210000e-01  5.362819407e-01  1.028040000e-01
 4.394191500e+01  1.091768480e+01  1.639984300e+01  3.729150000e-01  4.468480000e-02 -1.311570000e-01  3.978246941e-01  1.013530000e-01
 4.438507500e+01  8.208410300e+00  1.660080300e+01  2.460750000e-01  2.721030000e-02 -1.081970000e-01  2.701849309e-01  1.029300000e-01
 4.470796300e+01  5.481004400e+00  1.677748260e+01  1.339630000e-01  1.460440000e-02 -8.151740000e-02  1.574943185e-01  1.084880000e-01
 4.494544520e+01  2.737921090e+00  1.694499280e+01  4.344520000e-02  6.210900000e-04 -4.900720000e-02  6.549486093e-02  1.044380000e-01
 3.497819000e+01  3.015181900e+01  1.633418200e+01  1.510190000e+00  3.528190000e-01 -2.778180000e-01  1.575543692e+00  1.742800000e-01
 3.644320000e+01  2.803590200e+01  1.661283800e+01  1.376200000e+00  3.039020000e-01 -2.521620000e-01  1.431736198e+00  1.598580000e-01
 3.775631000e+01  2.579260300e+01  1.697195100e+01  1.237310000e+00  2.566030000e-01 -2.280490000e-01  1.284051199e+00  1.471260000e-01
 3.893246000e+01  2.344772300e+01  1.736771700e+01  1.094460000e+00  2.117230000e-01 -2.062830000e-01  1.133676319e+00  1.359040000e-01
 3.997788800e+01  2.101806600e+01  1.776195700e+01  9.488880000e-01  1.700660000e-01 -1.870430000e-01  9.819857253e-01  1.262100000e-01
 4.089711500e+01  1.852034300e+01  1.813404800e+01  8.021150000e-01  1.323430000e-01 -1.699520000e-01  8.305340602e-01  1.181680000e-01
 4.168908100e+01  1.596513440e+01  1.847077400e+01  6.560810000e-01  9.913440000e-02 -1.542260000e-01  6.812162409e-01  1.119940000e-01
 4.235524600e+01  1.336283360e+01  1.876820100e+01  5.132460000e-01  7.083360000e-02 -1.387990000e-01  5.363804786e-01  1.080010000e-01
 4.289559200e+01  1.072563900e+01  1.902561700e+01  3.765920000e-01  4.763900000e-02 -1.223830000e-01  3.988340601e-01  1.065590000e-01
 4.331296100e+01  8.062891500e+00  1.924763500e+01  2.499610000e-01  2.939150000e-02 -1.033650000e-01  2.720821292e-01  1.080010000e-01
 4.361880100e+01  5.383144900e+00  1.944022670e+01  1.378010000e-01  1.584490000e-02 -7.977330000e-02  1.600123616e-01  1.132340000e-01
 4.384135740e+01  2.688682720e+00  1.962267040e+01  4.635740000e-02  1.082720000e-03 -4.932960000e-02  6.770221749e-02  1.091220000e-01
 3.428739000e+01  2.958301100e+01  1.864136600e+01  1.510390000e+00  3.510110000e-01 -2.286340000e-01  1.567405557e+00  1.799090000e-01
 3.567908000e+01  2.751387100e+01  1.894301400e+01  1.377080000e+00  3.038710000e-01 -2.079860000e-01  1.425463113e+00  1.654470000e-01
 3.691561000e+01  2.531193600e+01  1.933727000e+01  1.238610000e+00  2.579360000e-01 -1.887300000e-01  1.279181271e+00  1.526880000e-01
 3.801503000e+01  2.300705200e+01  1.977112000e+01  1.096030000e+00  2.140520000e-01 -1.718800000e-01  1.129886169e+00  1.414370000e-01
 3.899071300e+01  2.061804900e+01  2.020430300e+01  9.507130000e-01  1.730490000e-01 -1.576970000e-01  9.791166981e-01  1.317200000e-01
 3.984526700e+01  1.816366900e+01  2.061223600e+01  8.042670000e-01  1.356690000e-01 -1.457640000e-01  8.285521278e-01  1.236750000e-01
 4.058167600e+01  1.565451700e+01  2.097981800e+01  6.586760000e-01  1.025170000e-01 -1.351820000e-01  6.801749638e-01  1.175230000e-01
 4.120137200e+01  1.310100670e+01  2.130428000e+01  5.163720000e-01  7.400670000e-02 -1.247200000e-01  5.363507364e-01  1.135670000e-01
 4.170326300e+01  1.051436030e+01  2.158510500e+01  3.802630000e-01  5.036030000e-02 -1.128950000e-01  3.998517100e-01  1.121300000e-01
 4.209101200e+01  7.902752500e+00  2.182411910e+01  2.540120000e-01  3.145250000e-02 -9.788090000e-02  2.740292439e-01  1.134420000e-01
 4.237485800e+01  5.275735600e+00  2.203252150e+01  1.418580000e-01  1.703560000e-02 -7.747850000e-02  1.625325253e-01  1.183690000e-01
 4.258144600e+01  2.634730120e+00  2.222970670e+01  4.944600000e-02  1.530120000e-03 -4.929330000e-02  6.983607669e-02  1.141570000e-01
 3.351836000e+01  2.895791200e+01  2.088780300e+01  1.506360000e+00  3.469120000e-01 -1.791970000e-01  1.556142651e+00  1.854740000e-01
 3.482386000e+01  2.694598500e+01  2.121052300e+01  1.374860000e+00  3.019850000e-01 -1.634770000e-01  1.417095512e+00  1.711360000e-01
 3.597271000e+01  2.479379300e+01  2.163603400e+01  1.237710000e+00  2.577930000e-01 -1.489660000e-01  1.273017731e+00  1.584800000e-01
 3.698813000e+01  2.253420400e+01  2.210707200e+01  1.096130000e+00  2.152040000e-01 -1.369280000e-01  1.125416819e+00  1.472970000e-01
 3.788464000e+01  2.019211400e+01  2.257629200e+01  9.516400000e-01  1.751140000e-01 -1.277080000e-01  9.760086761e-01  1.376170000e-01
 3.866899400e+01  1.778529900e+01  2.301713400e+01  8.059940000e-01  1.382990000e-01 -1.208660000e-01  8.266568402e-01  1.295910000e-01
 3.934421900e+01  1.532539300e+01  2.341461400e+01  6.612190000e-01  1.053930000e-01 -1.153860000e-01  6.794351915e-01  1.234600000e-01
 3.991072600e+01  1.282483320e+01  2.376412400e+01  5.197260000e-01  7.683320000e-02 -1.098760000e-01  5.367412701e-01  1.195290000e-01
 4.037032900e+01  1.029186480e+01  2.406533800e+01  3.843290000e-01  5.286480000e-02 -1.026620000e-01  4.013015743e-01  1.180840000e-01
 4.072551400e+01  7.735592500e+00  2.432128810e+01  2.585140000e-01  3.339250000e-02 -9.171190000e-02  2.763252067e-01  1.192670000e-01
 4.098330200e+01  5.164276200e+00  2.454438280e+01  1.463020000e-01  1.817620000e-02 -7.461720000e-02  1.652343063e-01  1.239120000e-01
 4.116876900e+01  2.578954820e+00  2.475409490e+01  5.276900000e-02  1.954820000e-03 -4.890510000e-02  7.197289412e-02  1.195700000e-01
 3.267892000e+01  2.830187000e+01  2.303631900e+01  1.498920000e+00  3.408700000e-01 -1.306810000e-01  1.542734924e+00  1.909410000e-01
 3.387705000e+01  2.636479100e+01  2.338250200e+01  1.371050000e+00  2.987910000e-01 -1.194980000e-01  1.408308892e+00  1.769930000e-01
 3.492550000e+01  2.427473800e+01  2.384266500e+01  1.236500000e+00  2.567380000e-01 -1.093350000e-01  1.267596463e+00  1.646420000e-01
 3.584672000e+01  2.206771400e+01  2.435124300e+01  1.096720000e+00  2.157140000e-01 -1.017570000e-01  1.122355459e+00  1.536510000e-01
 3.665858300e+01  1.977470500e+01  2.485675660e+01  9.535830000e-01  1.767050000e-01 -9.724340000e-02  9.746801905e-01  1.440440000e-01
 3.736805100e+01  1.741657900e+01  2.532969300e+01  8.090510000e-01  1.405790000e-01 -9.530700000e-02  8.266857928e-01  1.360260000e-01
 3.797825500e+01  1.500801300e+01  2.575618210e+01  6.652550000e-01  1.080130000e-01 -9.481790000e-02  6.806037447e-01  1.298850000e-01
 3.848959500e+01  1.255947840e+01  2.613078380e+01  5.245950000e-01  7.947840000e-02 -9.421620000e-02  5.388816405e-01  1.259370000e-01
 3.890280000e+01  1.008024860e+01  2.645236570e+01  3.898000000e-01  5.524860000e-02 -9.163430000e-02  4.042193622e-01  1.244480000e-01
 3.922118400e+01  7.578162400e+00  2.672516250e+01  2.641840000e-01  3.526240000e-02 -8.483750000e-02  2.797034575e-01  1.254890000e-01
 3.945056800e+01  5.060283000e+00  2.696279720e+01  1.515680000e-01  1.928300000e-02 -7.120280000e-02  1.685661041e-01  1.298850000e-01
 3.961149610e+01  2.527460670e+00  2.718779550e+01  5.649610000e-02  2.360670000e-03 -4.820450000e-02  7.430380810e-02  1.253930000e-01
 3.178364000e+01  2.767098000e+01  2.502003350e+01  1.490640000e+00  3.339800000e-01 -8.496650000e-02  1.529957371e+00  1.963610000e-01
 3.283920000e+01  2.583546900e+01  2.540782070e+01  1.369200000e+00  2.954690000e-01 -7.717930000e-02  1.402842548e+00  1.832800000e-01
 3.376571000e+01  2.381795300e+01  2.591765500e+01  1.238710000e+00  2.559530000e-01 -7.034500000e-02  1.266831805e+00  1.715340000e-01
 3.458548000e+01  2.166759500e+01  2.647247750e+01  1.101480000e+00  2.165950000e-01 -6.652250000e-02  1.124542942e+00  1.608020000e-01
 3.530895600e+01  1.942465800e+01  2.701978220e+01  9.599560000e-01  1.786580000e-01 -6.621780000e-02  9.786822773e-01  1.512360000e-01
 3.594151000e+01  1.711315100e+01  2.752912020e+01  8.165100000e-01  1.431510000e-01 -6.887980000e-02  8.318204228e-01  1.431610000e-01
 3.648543600e+01  1.474983700e+01  2.798778090e+01  6.734360000e-01  1.108370000e-01 -7.321910000e-02  6.864123566e-01  1.369260000e-01
 3.694016300e+01  1.234724590e+01  2.838850530e+01  5.331630000e-01  8.224590000e-02 -7.749470000e-02  5.450069735e-01  1.328740000e-01
 3.730736800e+01  9.913093900e+00  2.873237140e+01  3.983680000e-01  5.769390000e-02 -7.962860000e-02  4.103247049e-01  1.312660000e-01
 3.758821200e+01  7.455756100e+00  2.902484010e+01  2.722120000e-01  3.715610000e-02 -7.715990000e-02  2.853657283e-01  1.321240000e-01
 3.778536800e+01  4.980811200e+00  2.927777300e+01  1.583680000e-01  2.041120000e-02 -6.722700000e-02  1.732527346e-01  1.363000000e-01
 3.791491580e+01  2.488550850e+00  2.951877710e+01  6.091580000e-02  2.750850000e-03 -4.722290000e-02  7.712524976e-02  1.316570000e-01
 3.084911000e+01  2.716317700e+01  2.674679790e+01  1.487110000e+00  3.281770000e-01 -4.420210000e-02  1.523532120e+00  2.021630000e-01
 3.170483000e+01  2.544992300e+01  2.722783810e+01  1.374830000e+00  2.939230000e-01 -3.716190000e-02  1.406388732e+00  1.907160000e-01
 3.248648000e+01  2.350691400e+01  2.782106120e+01  1.249480000e+00  2.569140000e-01 -3.193880000e-02  1.276019263e+00  1.796910000e-01
 3.319594000e+01  2.140802500e+01  2.844326980e+01  1.114940000e+00  2.190250000e-01 -3.073020000e-02  1.136665078e+00  1.691180000e-01
 3.383077400e+01  1.920486400e+01  2.904504160e+01  9.747740000e-01  1.818640000e-01 -3.395840000e-02  9.921754071e-01  1.594610000e-01
 3.438884400e+01  1.692865800e+01  2.960016100e+01  8.318440000e-01  1.466580000e-01 -4.083900000e-02  8.456599986e-01  1.511730000e-01
 3.486968300e+01  1.459830600e+01  3.009612130e+01  6.886830000e-01  1.143060000e-01 -4.987870000e-02  6.998842910e-01  1.446850000e-01
 3.527078700e+01  1.222642010e+01  3.052889310e+01  5.477870000e-01  8.542010000e-02 -5.910690000e-02  5.575489364e-01  1.403830000e-01
 3.559281700e+01  9.822475800e+00  3.089880730e+01  4.118170000e-01  6.037580000e-02 -6.619270000e-02  4.214498217e-01  1.385500000e-01
 3.583383400e+01  7.392589300e+00  3.121159040e+01  2.838340000e-01  3.918930000e-02 -6.840960000e-02  2.945800641e-01  1.391820000e-01
 3.599541900e+01  4.941643000e+00  3.148242820e+01  1.674190000e-01  2.164300000e-02 -6.257180000e-02  1.800354720e-01  1.431710000e-01
 3.608835050e+01  2.469969750e+00  3.174002230e+01  6.635050000e-02  3.169750000e-03 -4.597770000e-02  8.078604497e-02  1.384000000e-01
             940              941             4611             4597               23               24              422              421
             941              942             4612             4611               24               25              423              422
             942              943             4613             4612               25               26              424              423
             943              944             4614             4613               26               27              425              424
             944              945             4615             4614               27               28              426              425
             945              946             4616             4615               28               29              427              426
             946              947             4617             4616               29               30              428              427
             947              948             4618             4617               30               31              429              428
             948              949             4619             4618               31               32              430              429
             949              950             4620             4619               32               33              431              430
             950              951             4621             4620               33               34              432              431
             951              952             4622             4621               34               35              433              432
             952               61              890             4622               35                1               36              433
            4597             4611             4623             4596              421              422              435              434
            4611             4612             4624             4623              422              423              436              435
            4612             4613             4625             4624              423              424              437              436
            4613             4614             4626             4625              424              425              438              437
            4614             4615             4627             4626              425              426              439              438
            4615             4616             4628             4627              426              427              440              439
            4616             4617             4629             4628              427              428              441              440
            4617             4618             4630             4629              428              429              442              441
            4618             4619             4631             4630              429              430              443              442
            4619             4620             4632             4631              430              431              444              443
            4620             4621             4633             4632              431              432              445              444
            4621             4622             4634             4633              432              433              446              445
            4622              890              891             4634              433               36               37              446
            4596             4623             4635             4595              434              435              448              447
            4623             4624             4636             4635              435              436              449              448
            4624             4625             4637             4636              436              437              450              449
            4625             4626             4638             4637              437              438              451              450
            4626             4627             4639             4638              438              439              452              451
            4627             4628             4640             4639              439              440              453              452
            4628             4629             4641             4640              440              441              454              453
            4629             4630             4642             4641              441              442              455              454
            4630             4631             4643             4642              442              443              456              455
            4631             4632             4644             4643              443              444              457              456
            4632             4633             4645             4644              444              445              458              457
            4633             4634             4646             4645              445              446              459              458
            4634              891              892             4646              446               37               38              459
            4595             4635             4647             4594              447              448              461              460
            4635             4636             4648             4647              448              449              462              461
            4636             4637             4649             4648              449              450              463              462
            4637             4638             4650             4649              450              451              464              463
            4638             4639             4651             4650              451              452              465              464
            4639             4640             4652             4651              452              453              466              465
            4640             4641             4653             4652              453              454              467              466
            4641             4642             4654             4653              454              455              468              467
            4642             4643             4655             4654              455              456              469              468
            4643             4644             4656             4655              456              457              470              469
            4644             4645             4657             4656              457              458              471              470
            4645             4646             4658             4657              458              459              472              471
            4646              892              893             4658              459               38               39              472
            4594             4647             4659             4593              460              461              474              473
            4647             4648             4660             4659              461              462              475              474
            4648             4649             4661             4660              462              463              476              475
            4649             4650             4662             4661              463              464              477              476
            4650             4651             4663             4662              464              465              478              477
            4651             4652             4664             4663              465              466              479              478
            4652             4653             4665             4664              466              467              480              479
            4653             4654             4666             4665              467              468              481              480
            4654             4655             4667             4666              468              469              482              481
            4655             4656             4668             4667              469              470              483              482
            4656             4657             4669             4668              470              471              484              483
            4657             4658             4670             4669              471              472              485              484
            4658              893              894             4670              472               39               40              485
            4593             4659             4671             4592              473              474              487              486
            4659             4660             4672             4671              474              475              488              487
            4660             4661             4673             4672              475              476              489              488
            4661             4662             4674             4673              476              477              490              489
            4662             4663             4675             4674              477              478              491              490
            4663             4664             4676             4675              478              479              492              491
            4664             4665             4677             4676              479              480              493              492
            4665             4666             4678             4677              480              481              494              493
            4666             4667             4679             4678              481              482              495              494
            4667             4668             4680             4679              482              483              496              495
            4668             4669             4681             4680              483              484              497              496
            4669             4670             4682             4681              484              485              498              497
            4670              894              895             4682              485               40               41              498
            4592             4671             4683             4591              486              487              500              499
            4671             4672             4684             4683              487              488              501              500
            4672             4673             4685             4684              488              489              502              501
            4673             4674             4686             4685              489              490              503              502
            4674             4675             4687             4686              490              491              504              503
            4675             4676             4688             4687              491              492              505              504
            4676             4677             4689             4688              492              493              506              505
            4677             4678             4690             4689              493              494              507              506
            4678             4679             4691             4690              494              495              508              507
            4679             4680             4692             4691              495              496              509              508
            4680             4681             4693             4692              496              497              510              509
            4681             4682             4694             4693              497              498              511              510
            4682              895              896             4694              498               41               42              511
            4591             4683             4695             4590              499              500              513              512
            4683             4684             4696             4695              500              501              514              513
            4684             4685             4697             4696              501              502              515              514
            4685             4686             4698             4697              502              503              516              515
            4686             4687             4699             4698              503              504              517              516
            4687             4688             4700             4699              504              505              518              517
            4688             4689             4701             4700              505              506              519              518
            4689             4690             4702             4701              506              507              520              519
            4690             4691             4703             4702              507              508              521              520
            4691             4692             4704             4703              508              509              522              521
            4692             4693             4705             4704              509              510              523              522
            4693             4694             4706             4705              510              511              524              523
            4694              896              897             4706              511               42               43              524
            4590             4695             4707             4589              512              513              526              525
            4695             4696             4708             4707              513              514              527              526
            4696             4697             4709             4708              514              515              528              527
            4697             4698             4710             4709              515              516              529              528
            4698             4699             4711             4710              516              517              530              529
            4699             4700             4712             4711              517              518              531              530
            4700             4701             4713             4712              518              519              532              531
            4701             4702             4714             4713              519              520              533              532
            4702             4703             4715             4714              520              521              534              533
            4703             4704             4716             4715              521              522              535              534
            4704             4705             4717             4716              522              523              536              535
            4705             4706             4718             4717              523              524              537              536
            4706              897              898             4718              524               43               44              537
            4589             4707             4719             4588              525              526              539              538
            4707             4708             4720             4719              526              527              540              539
            4708             4709             4721             4720              527              528              541              540
            4709             4710             4722             4721              528              529              542              541
            4710             4711             4723             4722              529              530              543              542
            4711             4712             4724             4723              530              531              544              543
            4712             4713             4725             4724              531              532              545              544
            4713             4714             4726             4725              532              533              546              545
            4714             4715             4727             4726              533              534              547              546
            4715             4716             4728             4727              534              535              548              547
            4716             4717             4729             4728              535              536              549              548
            4717             4718             4730             4729              536              537              550              549
            4718              898              899             4730              537               44               45              550
            4588             4719             4731             4587              538              539              552              551
            4719             4720             4732             4731              539              540              553              552
            4720             4721             4733             4732              540              541              554              553
            4721             4722             4734             4733              541              542              555              554
            4722             4723             4735             4734              542              543              556              555
            4723             4724             4736             4735              543              544              557              556
            4724             4725             4737             4736              544              545              558              557
            4725             4726             4738             4737              545              546              559              558
            4726             4727             4739             4738              546              547              560              559
            4727             4728             4740             4739              547              548              561              560
            4728             4729             4741             4740              548              549              562              561
            4729             4730             4742             4741              549              550              563              562
            4730              899              900             4742              550               45               46              563
            4587             4731             4743             4586              551              552              565              564
            4731             4732             4744             4743              552              553              566              565
            4732             4733             4745             4744              553              554              567              566
            4733             4734             4746             4745              554              555              568              567
            4734             4735             4747             4746              555              556              569              568
            4735             4736             4748             4747              556              557              570              569
            4736             4737             4749             4748              557              558              571              570
            4737             4738             4750             4749              558              559              572              571
            4738             4739             4751             4750              559              560              573              572
            4739             4740             4752             4751              560              561              574              573
            4740             4741             4753             4752              561              562              575              574
            4741             4742             4754             4753              562              563              576              575
            4742              900              901             4754              563               46               47              576
            4586             4743             4585             4573              564              565              578              577
            4743             4744             4584             4585              565              566              579              578
            4744             4745             4583             4584              566              567              580              579
            4745             4746             4582             4583              567              568              581              580
            4746             4747             4581             4582              568              569              582              581
            4747             4748             4580             4581              569              570              583              582
            4748             4749             4579             4580              570              571              584              583
            4749             4750             4578             4579              571              572              585              584
            4750             4751             4577             4578              572              573              586              585
            4751             4752             4576             4577              573              574              587              586
            4752             4753             4575             4576              574              575              588              587
            4753             4754             4574             4575              575              576              589              588
            4754              901              902             4574              576               47               48              589
             902              903             4755             4574               48               49              590              589
             903              904             4756             4755               49               50              591              590
             904              905             4757             4756               50               51              592              591
             905              906             4758             4757               51               52              593              592
             906              907             4759             4758               52               53              594              593
             907              908             4760             4759               53               54              595              594
             908              909             4761             4760               54               55              596              595
             909              910             4762             4761               55               56              597              596
             910              911             4763             4762               56               57              598              597
             911              912             4764             4763               57               58              599              598
             912              913             4765             4764               58               59              600              599
             913              914             4766             4765               59               60              601              600
             914               89              990             4766               60                2               63              601
            4574             4755             4767             4575              589              590              602              588
            4755             4756             4768             4767              590              591              603              602
            4756             4757             4769             4768              591              592              604              603
            4757             4758             4770             4769              592              593              605              604
            4758             4759             4771             4770              593              594              606              605
            4759             4760             4772             4771              594              595              607              606
            4760             4761             4773             4772              595              596              608              607
            4761             4762             4774             4773              596              597              609              608
            4762             4763             4775             4774              597              598              610              609
            4763             4764             4776             4775              598              599              611              610
            4764             4765             4777             4776              599              600              612              611
            4765             4766             4778             4777              600              601              613              612
            4766              990              991             4778              601               63               64              613
            4575             4767             4779             4576              588              602              614              587
            4767             4768             4780             4779              602              603              615              614
            4768             4769             4781             4780              603              604              616              615
            4769             4770             4782             4781              604              605              617              616
            4770             4771             4783             4782              605              606              618              617
            4771             4772             4784             4783              606              607              619              618
            4772             4773             4785             4784              607              608              620              619
            4773             4774             4786             4785              608              609              621              620
            4774             4775             4787             4786              609              610              622              621
            4775             4776             4788             4787              610              611              623              622
            4776             4777             4789             4788              611              612              624              623
            4777             4778             4790             4789              612              613              625              624
            4778              991              992             4790              613               64               65              625
            4576             4779             4791             4577              587              614              626              586
            4779             4780             4792             4791              614              615              627              626
            4780             4781             4793             4792              615              616              628              627
            4781             4782             4794             4793              616              617              629              628
            4782             4783             4795             4794              617              618              630              629
            4783             4784             4796             4795              618              619              631              630
            4784             4785             4797             4796              619              620              632              631
            4785             4786             4798             4797              620              621              633              632
            4786             4787             4799             4798              621              622              634              633
            4787             4788             4800             4799              622              623              635              634
            4788             4789             4801             4800              623              624              636              635
            4789             4790             4802             4801              624              625              637              636
            4790              992              993             4802              625               65               66              637
            4577             4791             4803             4578              586              626              638              585
            4791             4792             4804             4803              626              627              639              638
            4792             4793             4805             4804              627              628              640              639
            4793             4794             4806             4805              628              629              641              640
            4794             4795             4807             4806              629              630              642              641
            4795             4796             4808             4807              630              631              643              642
            4796             4797             4809             4808              631              632              644              643
            4797             4798             4810             4809              632              633              645              644
            4798             4799             4811             4810              633              634              646              645
            4799             4800             4812             4811              634              635              647              646
            4800             4801             4813             4812              635              636              648              647
            4801             4802             4814             4813              636              637              649              648
            4802              993              994             4814              637               66               67              649
            4578             4803             4815             4579              585              638              650              584
            4803             4804             4816             4815              638              639              651              650
            4804             4805             4817             4816              639              640              652              651
            4805             4806             4818             4817              640              641              653              652
            4806             4807             4819             4818              641              642              654              653
            4807             4808             4820             4819              642              643              655              654
            4808             4809             4821             4820              643              644              656              655
            4809             4810             4822             4821              644              645              657              656
            4810             4811             4823             4822              645              646              658              657
            4811             4812             4824             4823              646              647              659              658
            4812             4813             4825             4824              647              648              660              659
            4813             4814             4826             4825              648              649              661              660
            4814              994              995             4826              649               67               68              661
            4579             4815             4827             4580              584              650              662              583
            4815             4816             4828             4827              650              651              663              662
            4816             4817             4829             4828              651              652              664              663
            4817             4818             4830             4829              652              653              665              664
            4818             4819             4831             4830              653              654              666              665
            4819             4820             4832             4831              654              655              667              666
            4820             4821             4833             4832              655              656              668              667
            4821             4822             4834             4833              656              657              669              668
            4822             4823             4835             4834              657              658              670              669
            4823             4824             4836             4835              658              659              671              670
            4824             4825             4837             4836              659              660              672              671
            4825             4826             4838             4837              660              661              673              672
            4826              995              996             4838              661               68               69              673
            4580             4827             4839             4581              583              662              674              582
            4827             4828             4840             4839              662              663              675              674
            4828             4829             4841             4840              663              664              676              675
            4829             4830             4842             4841              664              665              677              676
            4830             4831             4843             4842              665              666              678              677
            4831             4832             4844             4843              666              667              679              678
            4832             4833             4845             4844              667              668              680              679
            4833             4834             4846             4845              668              669              681              680
            4834             4835             4847             4846              669              670              682              681
            4835             4836             4848             4847              670              671              683              682
            4836             4837             4849             4848              671              672              684              683
            4837             4838             4850             4849              672              673              685              684
            4838              996              997             4850              673               69               70              685
            4581             4839             4851             4582              582              674              686              581
            4839             4840             4852             4851              674              675              687              686
            4840             4841             4853             4852              675              676              688              687
            4841             4842             4854             4853              676              677              689              688
            4842             4843             4855             4854              677              678              690              689
            4843             4844             4856             4855              678              679              691              690
            4844             4845             4857             4856              679              680              692              691
            4845             4846             4858             4857              680              681              693              692
            4846             4847             4859             4858              681              682              694              693
            4847             4848             4860             4859              682              683              695              694
            4848             4849             4861             4860              683              684              696              695
            4849             4850             4862             4861              684              685              697              696
            4850              997              998             4862              685               70               71              697
            4582             4851             4863             4583              581              686              698              580
            4851             4852             4864             4863              686              687              699              698
            4852             4853             4865             4864              687              688              700              699
            4853             4854             4866             4865              688              689              701              700
            4854             4855             4867             4866              689              690              702              701
            4855             4856             4868             4867              690              691              703              702
            4856             4857             4869             4868              691              692              704              703
            4857             4858             4870             4869              692              693              705              704
            4858             4859             4871             4870              693              694              706              705
            4859             4860             4872             4871              694              695              707              706
            4860             4861             4873             4872              695              696              708              707
            4861             4862             4874             4873              696              697              709              708
            4862              998              999             4874              697               71               72              709
            4583             4863             4875             4584              580              698              710              579
            4863             4864             4876             4875              698              699              711              710
            4864             4865             4877             4876              699              700              712              711
            4865             4866             4878             4877              700              701              713              712
            4866             4867             4879             4878              701              702              714              713
            4867             4868             4880             4879              702              703              715              714
            4868             4869             4881             4880              703              704              716              715
            4869             4870             4882             4881              704              705              717              716
            4870             4871             4883             4882              705              706              718              717
            4871             4872             4884             4883              706              707              719              718
            4872             4873             4885             4884              707              708              720              719
            4873             4874             4886             4885              708              709              721              720
            4874              999             1000             4886              709               72               73              721
            4584             4875             4887             4585              579              710              722              578
            4875             4876             4888             4887              710              711              723              722
            4876             4877             4889             4888              711              712              724              723
            4877             4878             4890             4889              712              713              725              724
            4878             4879             4891             4890              713              714              726              725
            4879             4880             4892             4891              714              715              727              726
            4880             4881             4893             4892              715              716              728              727
            4881             4882             4894             4893              716              717              729              728
            4882             4883             4895             4894              717              718              730              729
            4883             4884             4896             4895              718              719              731              730
            4884             4885             4897             4896              719              720              732              731
            4885             4886             4898             4897              720              721              733              732
            4886             1000             1001             4898              721               73               74              733
            4585             4887             4598             4573              578              722              734              577
            4887             4888             4599             4598              722              723              735              734
            4888             4889             4600             4599              723              724              736              735
            4889             4890             4601             4600              724              725              737              736
            4890             4891             4602             4601              725              726              738              737
            4891             4892             4603             4602              726              727              739              738
            4892             4893             4604             4603              727              728              740              739
            4893             4894             4605             4604              728              729              741              740
            4894             4895             4606             4605              729              730              742              741
            4895             4896             4607             4606              730              731              743              742
            4896             4897             4608             4607              731              732              744              743
            4897             4898             4609             4608              732              733              745              744
            4898             1001             1002             4609              733               74               75              745
            1002             1003             4899             4609               75               76              746              745
            1003             1004             4900             4899               76               77              747              746
            1004             1005             4901             4900               77               78              748              747
            1005             1006             4902             4901               78               79              749              748
            1006             1007             4903             4902               79               80              750              749
            1007             1008             4904             4903               80               81              751              750
            1008             1009             4905             4904               81               82              752              751
            1009             1010             4906             4905               82               83              753              752
            1010             1011             4907             4906               83               84              754              753
            1011             1012             4908             4907               84               85              755              754
            1012             1013             4909             4908               85               86              756              755
            1013             1014             4910             4909               86               87              757              756
            1014               90              953             4910               87                3               11              757
            4609             4899             4911             4608              745              746              758              744
            4899             4900             4912             4911              746              747              759              758
            4900             4901             4913             4912              747              748              760              759
            4901             4902             4914             4913              748              749              761              760
            4902             4903             4915             4914              749              750              762              761
            4903             4904             4916             4915              750              751              763              762
            4904             4905             4917             4916              751              752              764              763
            4905             4906             4918             4917              752              753              765              764
            4906             4907             4919             4918              753              754              766              765
            4907             4908             4920             4919              754              755              767              766
            4908             4909             4921             4920              755              756              768              767
            4909             4910             4922             4921              756              757              769              768
            4910              953              954             4922              757               11               12              769
            4608             4911             4923             4607              744              758              770              743
            4911             4912             4924             4923              758              759              771              770
            4912             4913             4925             4924              759              760              772              771
            4913             4914             4926             4925              760              761              773              772
            4914             4915             4927             4926              761              762              774              773
            4915             4916             4928             4927              762              763              775              774
            4916             4917             4929             4928              763              764              776              775
            4917             4918             4930             4929              764              765              777              776
            4918             4919             4931             4930              765              766              778              777
            4919             4920             4932             4931              766              767              779              778
            4920             4921             4933             4932              767              768              780              779
            4921             4922             4934             4933              768              769              781              780
            4922              954              955             4934              769               12               13              781
            4607             4923             4935             4606              743              770              782              742
            4923             4924             4936             4935              770              771              783              782
            4924             4925             4937             4936              771              772              784              783
            4925             4926             4938             4937              772              773              785              784
            4926             4927             4939             4938              773              774              786              785
            4927             4928             4940             4939              774              775              787              786
            4928             4929             4941             4940              775              776              788              787
            4929             4930             4942             4941              776              777              789              788
            4930             4931             4943             4942              777              778              790              789
            4931             4932             4944             4943              778              779              791              790
            4932             4933             4945             4944              779              780              792              791
            4933             4934             4946             4945              780              781              793              792
            4934              955              956             4946              781               13               14              793
            4606             4935             4947             4605              742              782              794              741
            4935             4936             4948             4947              782              783              795              794
            4936             4937             4949             4948              783              784              796              795
            4937             4938             4950             4949              784              785              797              796
            4938             4939             4951             4950              785              786              798              797
            4939             4940             4952             4951              786              787              799              798
            4940             4941             4953             4952              787              788              800              799
            4941             4942             4954             4953              788              789              801              800
            4942             4943             4955             4954              789              790              802              801
            4943             4944             4956             4955              790              791              803              802
            4944             4945             4957             4956              791              792              804              803
            4945             4946             4958             4957              792              793              805              804
            4946              956              957             4958              793               14               15              805
            4605             4947             4959             4604              741              794              806              740
            4947             4948             4960             4959              794              795              807              806
            4948             4949             4961             4960              795              796              808              807
            4949             4950             4962             4961              796              797              809              808
            4950             4951             4963             4962              797              798              810              809
            4951             4952             4964             4963              798              799              811              810
            4952             4953             4965             4964              799              800              812              811
            4953             4954             4966             4965              800              801              813              812
            4954             4955             4967             4966              801              802              814              813
            4955             4956             4968             4967              802              803              815              814
            4956             4957             4969             4968              803              804              816              815
            4957             4958             4970             4969              804              805              817              816
            4958              957              958             4970              805               15               16              817
            4604             4959             4971             4603              740              806              818              739
            4959             4960             4972             4971              806              807              819              818
            4960             4961             4973             4972              807              808              820              819
            4961             4962             4974             4973              808              809              821              820
            4962             4963             4975             4974              809              810              822              821
            4963             4964             4976             4975              810              811              823              822
            4964             4965             4977             4976              811              812              824              823
            4965             4966             4978             4977              812              813              825              824
            4966             4967             4979             4978              813              814              826              825
            4967             4968             4980             4979              814              815              827              826
            4968             4969             4981             4980              815              816              828              827
            4969             4970             4982             4981              816              817              829              828
            4970              958              959             4982              817               16               17              829
            4603             4971             4983             4602              739              818              830              738
            4971             4972             4984             4983              818              819              831              830
            4972             4973             4985             4984              819              820              832              831
            4973             4974             4986             4985              820              821              833              832
            4974             4975             4987             4986              821              822              834              833
            4975             4976             4988             4987              822              823              835              834
            4976             4977             4989             4988              823              824              836              835
            4977             4978             4990             4989              824              825              837              836
            4978             4979             4991             4990              825              826              838              837
            4979             4980             4992             4991              826              827              839              838
            4980             4981             4993             4992              827              828              840              839
            4981             4982             4994             4993              828              829              841              840
            4982              959              960             4994              829               17               18              841
            4602             4983             4995             4601              738              830              842              737
            4983             4984             4996             4995              830              831              843              842
            4984             4985             4997             4996              831              832              844              843
            4985             4986             4998             4997              832              833              845              844
            4986             4987             4999             4998              833              834              846              845
            4987             4988             5000             4999              834              835              847              846
            4988             4989             5001             5000              835              836              848              847
            4989             4990             5002             5001              836              837              849              848
            4990             4991             5003             5002              837              838              850              849
            4991             4992             5004             5003              838              839              851              850
            4992             4993             5005             5004              839              840              852              851
            4993             4994             5006             5005              840              841              853              852
            4994              960              961             5006              841               18               19              853
            4601             4995             5007             4600              737              842              854              736
            4995             4996             5008             5007              842              843              855              854
            4996             4997             5009             5008              843              844              856              855
            4997             4998             5010             5009              844              845              857              856
            4998             4999             5011             5010              845              846              858              857
            4999             5000             5012             5011              846              847              859              858
            5000             5001             5013             5012              847              848              860              859
            5001             5002             5014             5013              848              849              861              860
            5002             5003             5015             5014              849              850              862              861
            5003             5004             5016             5015              850              851              863              862
            5004             5005             5017             5016              851              852              864              863
            5005             5006             5018             5017              852              853              865              864
            5006              961              962             5018              853               19               20              865
            4600             5007             5019             4599              736              854              866              735
            5007             5008             5020             5019              854              855              867              866
            5008             5009             5021             5020              855              856              868              867
            5009             5010             5022             5021              856              857              869              868
            5010             5011             5023             5022              857              858              870              869
            5011             5012             5024             5023              858              859              871              870
            5012             5013             5025             5024              859              860              872              871
            5013             5014             5026             5025              860              861              873              872
            5014             5015             5027             5026              861              862              874              873
            5015             5016             5028             5027              862              863              875              874
            5016             5017             5029             5028              863              864              876              875
            5017             5018             5030             5029              864              865              877              876
            5018              962              963             5030              865               20               21              877
            4599             5019             5031             4598              735              866              878              734
            5019             5020             5032             5031              866              867              879              878
            5020             5021             5033             5032              867              868              880              879
            5021             5022             5034             5033              868              869              881              880
            5022             5023             5035             5034              869              870              882              881
            5023             5024             5036             5035              870              871              883              882
            5024             5025             5037             5036              871              872              884              883
            5025             5026             5038             5037              872              873              885              884
            5026             5027             5039             5038              873              874              886              885
            5027             5028             5040             5039              874              875              887              886
            5028             5029             5041             5040              875              876              888              887
            5029             5030             5042             5041              876              877              889              888
            5030              963              964             5042              877               21               22              889
            4598             5031             4586             4573              734              878              564              577
            5031             5032             4587             4586              878              879              551              564
            5032             5033             4588             4587              879              880              538              551
            5033             5034             4589             4588              880              881              525              538
            5034             5035             4590             4589              881              882              512              525
            5035             5036             4591             4590              882              883              499              512
            5036             5037             4592             4591              883              884              486              499
            5037             5038             4593             4592              884              885              473              486
            5038             5039             4594             4593              885              886              460              473
            5039             5040             4595             4594              886              887              447              460
            5040             5041             4596             4595              887              888              434              447
            5041             5042             4597             4596              888              889              421              434
            5042              964              940             4597              889               22               23              421
             952              965             5079             4622               61               62              915              890
             965              117             1040             5079               62                4               92              915
            4622             5079             5080             4634              890              915              916              891
            5079             1040             1041             5080              915               92               93              916
            4634             5080             5081             4646              891              916              917              892
            5080             1041             1042             5081              916               93               94              917
            4646             5081             5082             4658              892              917              918              893
            5081             1042             1043             5082              917               94               95              918
            4658             5082             5083             4670              893              918              919              894
            5082             1043             1044             5083              918               95               96              919
            4670             5083             5084             4682              894              919              920              895
            5083             1044             1045             5084              919               96               97              920
            4682             5084             5085             4694              895              920              921              896
            5084             1045             1046             5085              920               97               98              921
            4694             5085             5086             4706              896              921              922              897
            5085             1046             1047             5086              921               98               99              922
            4706             5086             5087             4718              897              922              923              898
            5086             1047             1048             5087              922               99              100              923
            4718             5087             5088             4730              898              923              924              899
            5087             1048             1049             5088              923              100              101              924
            4730             5088             5089             4742              899              924              925              900
            5088             1049             1050             5089              924              101              102              925
            4742             5089             5090             4754              900              925              926              901
            5089             1050             1051             5090              925              102              103              926
            4754             5090             5055             4574              901              926              927              902
            5090             1051             1052             5055              926              103              104              927
             951              966             5091             4621              952              965             5079             4622
             966              118             1053             5091              965              117             1040             5079
            4621             5091             5092             4633             4622             5079             5080             4634
            5091             1053             1054             5092             5079             1040             1041             5080
            4633             5092             5093             4645             4634             5080             5081             4646
            5092             1054             1055             5093             5080             1041             1042             5081
            4645             5093             5094             4657             4646             5081             5082             4658
            5093             1055             1056             5094             5081             1042             1043             5082
            4657             5094             5095             4669             4658             5082             5083             4670
            5094             1056             1057             5095             5082             1043             1044             5083
            4669             5095             5096             4681             4670             5083             5084             4682
            5095             1057             1058             5096             5083             1044             1045             5084
            4681             5096             5097             4693             4682             5084             5085             4694
            5096             1058             1059             5097             5084             1045             1046             5085
            4693             5097             5098             4705             4694             5085             5086             4706
            5097             1059             1060             5098             5085             1046             1047             5086
            4705             5098             5099             4717             4706             5086             5087             4718
            5098             1060             1061             5099             5086             1047             1048             5087
            4717             5099             5100             4729             4718             5087             5088             4730
            5099             1061             1062             5100             5087             1048             1049             5088
            4729             5100             5101             4741             4730             5088             5089             4742
            5100             1062             1063             5101             5088             1049             1050             5089
            4741             5101             5102             4753             4742             5089             5090             4754
            5101             1063             1064             5102             5089             1050             1051             5090
            4753             5102             5056             4575             4754             5090             5055             4574
            5102             1064             1065             5056             5090             1051             1052             5055
             950              967             5103             4620              951              966             5091             4621
             967              119             1066             5103              966              118             1053             5091
            4620             5103             5104             4632             4621             5091             5092             4633
            5103             1066             1067             5104             5091             1053             1054             5092
            4632             5104             5105             4644             4633             5092             5093             4645
            5104             1067             1068             5105             5092             1054             1055             5093
            4644             5105             5106             4656             4645             5093             5094             4657
            5105             1068             1069             5106             5093             1055             1056             5094
            4656             5106             5107             4668             4657             5094             5095             4669
            5106             1069             1070             5107             5094             1056             1057             5095
            4668             5107             5108             4680             4669             5095             5096             4681
            5107             1070             1071             5108             5095             1057             1058             5096
            4680             5108             5109             4692             4681             5096             5097             4693
            5108             1071             1072             5109             5096             1058             1059             5097
            4692             5109             5110             4704             4693             5097             5098             4705
            5109             1072             1073             5110             5097             1059             1060             5098
            4704             5110             5111             4716             4705             5098             5099             4717
            5110             1073             1074             5111             5098             1060             1061             5099
            4716             5111             5112             4728             4717             5099             5100             4729
            5111             1074             1075             5112             5099             1061             1062             5100
            4728             5112             5113             4740             4729             5100             5101             4741
            5112             1075             1076             5113             5100             1062             1063             5101
            4740             5113             5114             4752             4741             5101             5102             4753
            5113             1076             1077             5114             5101             1063             1064             5102
            4752             5114             5057             4576             4753             5102             5056             4575
            5114             1077             1078             5057             5102             1064             1065             5056
             949              968             5115             4619              950              967             5103             4620
             968              120             1079             5115              967              119             1066             5103
            4619             5115             5116             4631             4620             5103             5104             4632
            5115             1079             1080             5116             5103             1066             1067             5104
            4631             5116             5117             4643             4632             5104             5105             4644
            5116             1080             1081             5117             5104             1067             1068             5105
            4643             5117             5118             4655             4644             5105             5106             4656
            5117             1081             1082             5118             5105             1068             1069             5106
            4655             5118             5119             4667             4656             5106             5107             4668
            5118             1082             1083             5119             5106             1069             1070             5107
            4667             5119             5120             4679             4668             5107             5108             4680
            5119             1083             1084             5120             5107             1070             1071             5108
            4679             5120             5121             4691             4680             5108             5109             4692
            5120             1084             1085             5121             5108             1071             1072             5109
            4691             5121             5122             4703             4692             5109             5110             4704
            5121             1085             1086             5122             5109             1072             1073             5110
            4703             5122             5123             4715             4704             5110             5111             4716
            5122             1086             1087             5123             5110             1073             1074             5111
            4715             5123             5124             4727             4716             5111             5112             4728
            5123             1087             1088             5124             5111             1074             1075             5112
            4727             5124             5125             4739             4728             5112             5113             4740
            5124             1088             1089             5125             5112             1075             1076             5113
            4739             5125             5126             4751             4740             5113             5114             4752
            5125             1089             1090             5126             5113             1076             1077             5114
            4751             5126             5058             4577             4752             5114             5057             4576
            5126             1090             1091             5058             5114             1077             1078             5057
             948              969             5127             4618              949              968             5115             4619
             969              121             1092             5127              968              120             1079             5115
            4618             5127             5128             4630             4619             5115             5116             4631
            5127             1092             1093             5128             5115             1079             1080             5116
            4630             5128             5129             4642             4631             5116             5117             4643
            5128             1093             1094             5129             5116             1080             1081             5117
            4642             5129             5130             4654             4643             5117             5118             4655
            5129             1094             1095             5130             5117             1081             1082             5118
            4654             5130             5131             4666             4655             5118             5119             4667
            5130             1095             1096             5131             5118             1082             1083             5119
            4666             5131             5132             4678             4667             5119             5120             4679
            5131             1096             1097             5132             5119             1083             1084             5120
            4678             5132             5133             4690             4679             5120             5121             4691
            5132             1097             1098             5133             5120             1084             1085             5121
            4690             5133             5134             4702             4691             5121             5122             4703
            5133             1098             1099             5134             5121             1085             1086             5122
            4702             5134             5135             4714             4703             5122             5123             4715
            5134             1099             1100             5135             5122             1086             1087             5123
            4714             5135             5136             4726             4715             5123             5124             4727
            5135             1100             1101             5136             5123             1087             1088             5124
            4726             5136             5137             4738             4727             5124             5125             4739
            5136             1101             1102             5137             5124             1088             1089             5125
            4738             5137             5138             4750             4739             5125             5126             4751
            5137             1102             1103             5138             5125             1089             1090             5126
            4750             5138             5059             4578             4751             5126             5058             4577
            5138             1103             1104             5059             5126             1090             1091             5058
             947              970             5139             4617              948              969             5127             4618
             970              122             1105             5139              969              121             1092             5127
            4617             5139             5140             4629             4618             5127             5128             4630
            5139             1105             1106             5140             5127             1092             1093             5128
            4629             5140             5141             4641             4630             5128             5129             4642
            5140             1106             1107             5141             5128             1093             1094             5129
            4641             5141             5142             4653             4642             5129             5130             4654
            5141             1107             1108             5142             5129             1094             1095             5130
            4653             5142             5143             4665             4654             5130             5131             4666
            5142             1108             1109             5143             5130             1095             1096             5131
            4665             5143             5144             4677             4666             5131             5132             4678
            5143             1109             1110             5144             5131             1096             1097             5132
            4677             5144             5145             4689             4678             5132             5133             4690
            5144             1110             1111             5145             5132             1097             1098             5133
            4689             5145             5146             4701             4690             5133             5134             4702
            5145             1111             1112             5146             5133             1098             1099             5134
            4701             5146             5147             4713             4702             5134             5135             4714
            5146             1112             1113             5147             5134             1099             1100             5135
            4713             5147             5148             4725             4714             5135             5136             4726
            5147             1113             1114             5148             5135             1100             1101             5136
            4725             5148             5149             4737             4726             5136             5137             4738
            5148             1114             1115             5149             5136             1101             1102             5137
            4737             5149             5150             4749             4738             5137             5138             4750
            5149             1115             1116             5150             5137             1102             1103             5138
            4749             5150             5060             4579             4750             5138             5059             4578
            5150             1116             1117             5060             5138             1103             1104             5059
             946              971             5151             4616              947              970             5139             4617
             971              123             1118             5151              970              122             1105             5139
            4616             5151             5152             4628             4617             5139             5140             4629
            5151             1118             1119             5152             5139             1105             1106             5140
            4628             5152             5153             4640             4629             5140             5141             4641
            5152             1119             1120             5153             5140             1106             1107             5141
            4640             5153             5154             4652             4641             5141             5142             4653
            5153             1120             1121             5154             5141             1107             1108             5142
            4652             5154             5155             4664             4653             5142             5143             4665
            5154             1121             1122             5155             5142             1108             1109             5143
            4664             5155             5156             4676             4665             5143             5144             4677
            5155             1122             1123             5156             5143             1109             1110             5144
            4676             5156             5157             4688             4677             5144             5145             4689
            5156             1123             1124             5157             5144             1110             1111             5145
            4688             5157             5158             4700             4689             5145             5146             4701
            5157             1124             1125             5158             5145             1111             1112             5146
            4700             5158             5159             4712             4701             5146             5147             4713
            5158             1125             1126             5159             5146             1112             1113             5147
            4712             5159             5160             4724             4713             5147             5148             4725
            5159             1126             1127             5160             5147             1113             1114             5148
            4724             5160             5161             4736             4725             5148             5149             4737
            5160             1127             1128             5161             5148             1114             1115             5149
            4736             5161             5162             4748             4737             5149             5150             4749
            5161             1128             1129             5162             5149             1115             1116             5150
            4748             5162             5061             4580             4749             5150             5060             4579
            5162             1129             1130             5061             5150             1116             1117             5060
             945              972             5163             4615              946              971             5151             4616
             972              124             1131             5163              971              123             1118             5151
            4615             5163             5164             4627             4616             5151             5152             4628
            5163             1131             1132             5164             5151             1118             1119             5152
            4627             5164             5165             4639             4628             5152             5153             4640
            5164             1132             1133             5165             5152             1119             1120             5153
            4639             5165             5166             4651             4640             5153             5154             4652
            5165             1133             1134             5166             5153             1120             1121             5154
            4651             5166             5167             4663             4652             5154             5155             4664
            5166             1134             1135             5167             5154             1121             1122             5155
            4663             5167             5168             4675             4664             5155             5156             4676
            5167             1135             1136             5168             5155             1122             1123             5156
            4675             5168             5169             4687             4676             5156             5157             4688
            5168             1136             1137             5169             5156             1123             1124             5157
            4687             5169             5170             4699             4688             5157             5158             4700
            5169             1137             1138             5170             5157             1124             1125             5158
            4699             5170             5171             4711             4700             5158             5159             4712
            5170             1138             1139             5171             5158             1125             1126             5159
            4711             5171             5172             4723             4712             5159             5160             4724
            5171             1139             1140             5172             5159             1126             1127             5160
            4723             5172             5173             4735             4724             5160             5161             4736
            5172             1140             1141             5173             5160             1127             1128             5161
            4735             5173             5174             4747             4736             5161             5162             4748
            5173             1141             1142             5174             5161             1128             1129             5162
            4747             5174             5062             4581             4748             5162             5061             4580
            5174             1142             1143             5062             5162             1129             1130             5061
             944              973             5175             4614              945              972             5163             4615
             973              125             1144             5175              972              124             1131             5163
            4614             5175             5176             4626             4615             5163             5164             4627
            5175             1144             1145             5176             5163             1131             1132             5164
            4626             5176             5177             4638             4627             5164             5165             4639
            5176             1145             1146             5177             5164             1132             1133             5165
            4638             5177             5178             4650             4639             5165             5166             4651
            5177             1146             1147             5178             5165             1133             1134             5166
            4650             5178             5179             4662             4651             5166             5167             4663
            5178             1147             1148             5179             5166             1134             1135             5167
            4662             5179             5180             4674             4663             5167             5168             4675
            5179             1148             1149             5180             5167             1135             1136             5168
            4674             5180             5181             4686             4675             5168             5169             4687
            5180             1149             1150             5181             5168             1136             1137             5169
            4686             5181             5182             4698             4687             5169             5170             4699
            5181             1150             1151             5182             5169             1137             1138             5170
            4698             5182             5183             4710             4699             5170             5171             4711
            5182             1151             1152             5183             5170             1138             1139             5171
            4710             5183             5184             4722             4711             5171             5172             4723
            5183             1152             1153             5184             5171             1139             1140             5172
            4722             5184             5185             4734             4723             5172             5173             4735
            5184             1153             1154             5185             5172             1140             1141             5173
            4734             5185             5186             4746             4735             5173             5174             4747
            5185             1154             1155             5186             5173             1141             1142             5174
            4746             5186             5063             4582             4747             5174             5062             4581
            5186             1155             1156             5063             5174             1142             1143             5062
             943              974             5187             4613              944              973             5175             4614
             974              126             1157             5187              973              125             1144             5175
            4613             5187             5188             4625             4614             5175             5176             4626
            5187             1157             1158             5188             5175             1144             1145             5176
            4625             5188             5189             4637             4626             5176             5177             4638
            5188             1158             1159             5189             5176             1145             1146             5177
            4637             5189             5190             4649             4638             5177             5178             4650
            5189             1159             1160             5190             5177             1146             1147             5178
            4649             5190             5191             4661             4650             5178             5179             4662
            5190             1160             1161             5191             5178             1147             1148             5179
            4661             5191             5192             4673             4662             5179             5180             4674
            5191             1161             1162             5192             5179             1148             1149             5180
            4673             5192             5193             4685             4674             5180             5181             4686
            5192             1162             1163             5193             5180             1149             1150             5181
            4685             5193             5194             4697             4686             5181             5182             4698
            5193             1163             1164             5194             5181             1150             1151             5182
            4697             5194             5195             4709             4698             5182             5183             4710
            5194             1164             1165             5195             5182             1151             1152             5183
            4709             5195             5196             4721             4710             5183             5184             4722
            5195             1165             1166             5196             5183             1152             1153             5184
            4721             5196             5197             4733             4722             5184             5185             4734
            5196             1166             1167             5197             5184             1153             1154             5185
            4733             5197             5198             4745             4734             5185             5186             4746
            5197             1167             1168             5198             5185             1154             1155             5186
            4745             5198             5064             4583             4746             5186             5063             4582
            5198             1168             1169             5064             5186             1155             1156             5063
             942              975             5199             4612              943              974             5187             4613
             975              127             1170             5199              974              126             1157             5187
            4612             5199             5200             4624             4613             5187             5188             4625
            5199             1170             1171             5200             5187             1157             1158             5188
            4624             5200             5201             4636             4625             5188             5189             4637
            5200             1171             1172             5201             5188             1158             1159             5189
            4636             5201             5202             4648             4637             5189             5190             4649
            5201             1172             1173             5202             5189             1159             1160             5190
            4648             5202             5203             4660             4649             5190             5191             4661
            5202             1173             1174             5203             5190             1160             1161             5191
            4660             5203             5204             4672             4661             5191             5192             4673
            5203             1174             1175             5204             5191             1161             1162             5192
            4672             5204             5205             4684             4673             5192             5193             4685
            5204             1175             1176             5205             5192             1162             1163             5193
            4684             5205             5206             4696             4685             5193             5194             4697
            5205             1176             1177             5206             5193             1163             1164             5194
            4696             5206             5207             4708             4697             5194             5195             4709
            5206             1177             1178             5207             5194             1164             1165             5195
            4708             5207             5208             4720             4709             5195             5196             4721
            5207             1178             1179             5208             5195             1165             1166             5196
            4720             5208             5209             4732             4721             5196             5197             4733
            5208             1179             1180             5209             5196             1166             1167             5197
            4732             5209             5210             4744             4733             5197             5198             4745
            5209             1180             1181             5210             5197             1167             1168             5198
            4744             5210             5065             4584             4745             5198             5064             4583
            5210             1181             1182             5065             5198             1168             1169             5064
             941              976             5211             4611              942              975             5199             4612
             976              128             1183             5211              975              127             1170             5199
            4611             5211             5212             4623             4612             5199             5200             4624
            5211             1183             1184             5212             5199             1170             1171             5200
            4623             5212             5213             4635             4624             5200             5201             4636
            5212             1184             1185             5213             5200             1171             1172             5201
            4635             5213             5214             4647             4636             5201             5202             4648
            5213             1185             1186             5214             5201             1172             1173             5202
            4647             5214             5215             4659             4648             5202             5203             4660
            5214             1186             1187             5215             5202             1173             1174             5203
            4659             5215             5216             4671             4660             5203             5204             4672
            5215             1187             1188             5216             5203             1174             1175             5204
            4671             5216             5217             4683             4672             5204             5205             4684
            5216             1188             1189             5217             5204             1175             1176             5205
            4683             5217             5218             4695             4684             5205             5206             4696
            5217             1189             1190             5218             5205             1176             1177             5206
            4695             5218             5219             4707             4696             5206             5207             4708
            5218             1190             1191             5219             5206             1177             1178             5207
            4707             5219             5220             4719             4708             5207             5208             4720
            5219             1191             1192             5220             5207             1178             1179             5208
            4719             5220             5221             4731             4720             5208             5209             4732
            5220             1192             1193             5221             5208             1179             1180             5209
            4731             5221             5222             4743             4732             5209             5210             4744
            5221             1193             1194             5222             5209             1180             1181             5210
            4743             5222             5066             4585             4744             5210             5065             4584
            5222             1194             1195             5066             5210             1181             1182             5065
             940              977             5043             4597              941              976             5211             4611
             977              129             1196             5043              976              128             1183             5211
            4597             5043             5044             4596             4611             5211             5212             4623
            5043             1196             1197             5044             5211             1183             1184             5212
            4596             5044             5045             4595             4623             5212             5213             4635
            5044             1197             1198             5045             5212             1184             1185             5213
            4595             5045             5046             4594             4635             5213             5214             4647
            5045             1198             1199             5046             5213             1185             1186             5214
            4594             5046             5047             4593             4647             5214             5215             4659
            5046             1199             1200             5047             5214             1186             1187             5215
            4593             5047             5048             4592             4659             5215             5216             4671
            5047             1200             1201             5048             5215             1187             1188             5216
            4592             5048             5049             4591             4671             5216             5217             4683
            5048             1201             1202             5049             5216             1188             1189             5217
            4591             5049             5050             4590             4683             5217             5218             4695
            5049             1202             1203             5050             5217             1189             1190             5218
            4590             5050             5051             4589             4695             5218             5219             4707
            5050             1203             1204             5051             5218             1190             1191             5219
            4589             5051             5052             4588             4707             5219             5220             4719
            5051             1204             1205             5052             5219             1191             1192             5220
            4588             5052             5053             4587             4719             5220             5221             4731
            5052             1205             1206             5053             5220             1192             1193             5221
            4587             5053             5054             4586             4731             5221             5222             4743
            5053             1206             1207             5054             5221             1193             1194             5222
            4586             5054             4610             4573             4743             5222             5066             4585
            5054             1207             1208             4610             5222             1194             1195             5066
            1052             1209             5223             5055              104              105              928              927
            1209             1210             5224             5223              105              106              929              928
            1210             1211             5225             5224              106              107              930              929
            1211             1212             5226             5225              107              108              931              930
            1212             1213             5227             5226              108              109              932              931
            1213             1214             5228             5227              109              110              933              932
            1214             1215             5229             5228              110              111              934              933
            1215             1216             5230             5229              111              112              935              934
            1216             1217             5231             5230              112              113              936              935
            1217             1218             5232             5231              113              114              937              936
            1218             1219             5233             5232              114              115              938              937
            1219             1220             5234             5233              115              116              939              938
            1220              166             1015             5234              116                5               88              939
            5055             5223             4755             4574              927              928              903              902
            5223             5224             4756             4755              928              929              904              903
            5224             5225             4757             4756              929              930              905              904
            5225             5226             4758             4757              930              931              906              905
            5226             5227             4759             4758              931              932              907              906
            5227             5228             4760             4759              932              933              908              907
            5228             5229             4761             4760              933              934              909              908
            5229             5230             4762             4761              934              935              910              909
            5230             5231             4763             4762              935              936              911              910
            5231             5232             4764             4763              936              937              912              911
            5232             5233             4765             4764              937              938              913              912
            5233             5234             4766             4765              938              939              914              913
            5234             1015              990             4766              939               88               89              914
            1065             1221             5235             5056             1052             1209             5223             5055
            1221             1222             5236             5235             1209             1210             5224             5223
            1222             1223             5237             5236             1210             1211             5225             5224
            1223             1224             5238             5237             1211             1212             5226             5225
            1224             1225             5239             5238             1212             1213             5227             5226
            1225             1226             5240             5239             1213             1214             5228             5227
            1226             1227             5241             5240             1214             1215             5229             5228
            1227             1228             5242             5241             1215             1216             5230             5229
            1228             1229             5243             5242             1216             1217             5231             5230
            1229             1230             5244             5243             1217             1218             5232             5231
            1230             1231             5245             5244             1218             1219             5233             5232
            1231             1232             5246             5245             1219             1220             5234             5233
            1232              165             1016             5246             1220              166             1015             5234
            5056             5235             4767             4575             5055             5223             4755             4574
            5235             5236             4768             4767             5223             5224             4756             4755
            5236             5237             4769             4768             5224             5225             4757             4756
            5237             5238             4770             4769             5225             5226             4758             4757
            5238             5239             4771             4770             5226             5227             4759             4758
            5239             5240             4772             4771             5227             5228             4760             4759
            5240             5241             4773             4772             5228             5229             4761             4760
            5241             5242             4774             4773             5229             5230             4762             4761
            5242             5243             4775             4774             5230             5231             4763             4762
            5243             5244             4776             4775             5231             5232             4764             4763
            5244             5245             4777             4776             5232             5233             4765             4764
            5245             5246             4778             4777             5233             5234             4766             4765
            5246             1016              991             4778             5234             1015              990             4766
            1078             1233             5247             5057             1065             1221             5235             5056
            1233             1234             5248             5247             1221             1222             5236             5235
            1234             1235             5249             5248             1222             1223             5237             5236
            1235             1236             5250             5249             1223             1224             5238             5237
            1236             1237             5251             5250             1224             1225             5239             5238
            1237             1238             5252             5251             1225             1226             5240             5239
            1238             1239             5253             5252             1226             1227             5241             5240
            1239             1240             5254             5253             1227             1228             5242             5241
            1240             1241             5255             5254             1228             1229             5243             5242
            1241             1242             5256             5255             1229             1230             5244             5243
            1242             1243             5257             5256             1230             1231             5245             5244
            1243             1244             5258             5257             1231             1232             5246             5245
            1244              164             1017             5258             1232              165             1016             5246
            5057             5247             4779             4576             5056             5235             4767             4575
            5247             5248             4780             4779             5235             5236             4768             4767
            5248             5249             4781             4780             5236             5237             4769             4768
            5249             5250             4782             4781             5237             5238             4770             4769
            5250             5251             4783             4782             5238             5239             4771             4770
            5251             5252             4784             4783             5239             5240             4772             4771
            5252             5253             4785             4784             5240             5241             4773             4772
            5253             5254             4786             4785             5241             5242             4774             4773
            5254             5255             4787             4786             5242             5243             4775             4774
            5255             5256             4788             4787             5243             5244             4776             4775
            5256             5257             4789             4788             5244             5245             4777             4776
            5257             5258             4790             4789             5245             5246             4778             4777
            5258             1017              992             4790             5246             1016              991             4778
            1091             1245             5259             5058             1078             1233             5247             5057
            1245             1246             5260             5259             1233             1234             5248             5247
            1246             1247             5261             5260             1234             1235             5249             5248
            1247             1248             5262             5261             1235             1236             5250             5249
            1248             1249             5263             5262             1236             1237             5251             5250
            1249             1250             5264             5263             1237             1238             5252             5251
            1250             1251             5265             5264             1238             1239             5253             5252
            1251             1252             5266             5265             1239             1240             5254             5253
            1252             1253             5267             5266             1240             1241             5255             5254
            1253             1254             5268             5267             1241             1242             5256             5255
            1254             1255             5269             5268             1242             1243             5257             5256
            1255             1256             5270             5269             1243             1244             5258             5257
            1256              163             1018             5270             1244              164             1017             5258
            5058             5259             4791             4577             5057             5247             4779             4576
            5259             5260             4792             4791             5247             5248             4780             4779
            5260             5261             4793             4792             5248             5249             4781             4780
            5261             5262             4794             4793             5249             5250             4782             4781
            5262             5263             4795             4794             5250             5251             4783             4782
            5263             5264             4796             4795             5251             5252             4784             4783
            5264             5265             4797             4796             5252             5253             4785             4784
            5265             5266             4798             4797             5253             5254             4786             4785
            5266             5267             4799             4798             5254             5255             4787             4786
            5267             5268             4800             4799             5255             5256             4788             4787
            5268             5269             4801             4800             5256             5257             4789             4788
            5269             5270             4802             4801             5257             5258             4790             4789
            5270             1018              993             4802             5258             1017              992             4790
            1104             1257             5271             5059             1091             1245             5259             5058
            1257             1258             5272             5271             1245             1246             5260             5259
            1258             1259             5273             5272             1246             1247             5261             5260
            1259             1260             5274             5273             1247             1248             5262             5261
            1260             1261             5275             5274             1248             1249             5263             5262
            1261             1262             5276             5275             1249             1250             5264             5263
            1262             1263             5277             5276             1250             1251             5265             5264
            1263             1264             5278             5277             1251             1252             5266             5265
            1264             1265             5279             5278             1252             1253             5267             5266
            1265             1266             5280             5279             1253             1254             5268             5267
            1266             1267             5281             5280             1254             1255             5269             5268
            1267             1268             5282             5281             1255             1256             5270             5269
            1268              162             1019             5282             1256              163             1018             5270
            5059             5271             4803             4578             5058             5259             4791             4577
            5271             5272             4804             4803             5259             5260             4792             4791
            5272             5273             4805             4804             5260             5261             4793             4792
            5273             5274             4806             4805             5261             5262             4794             4793
            5274             5275             4807             4806             5262             5263             4795             4794
            5275             5276             4808             4807             5263             5264             4796             4795
            5276             5277             4809             4808             5264             5265             4797             4796
            5277             5278             4810             4809             5265             5266             4798             4797
            5278             5279             4811             4810             5266             5267             4799             4798
            5279             5280             4812             4811             5267             5268             4800             4799
            5280             5281             4813             4812             5268             5269             4801             4800
            5281             5282             4814             4813             5269             5270             4802             4801
            5282             1019              994             4814             5270             1018              993             4802
            1117             1269             5283             5060             1104             1257             5271             5059
            1269             1270             5284             5283             1257             1258             5272             5271
            1270             1271             5285             5284             1258             1259             5273             5272
            1271             1272             5286             5285             1259             1260             5274             5273
            1272             1273             5287             5286             1260             1261             5275             5274
            1273             1274             5288             5287             1261             1262             5276             5275
            1274             1275             5289             5288             1262             1263             5277             5276
            1275             1276             5290             5289             1263             1264             5278             5277
            1276             1277             5291             5290             1264             1265             5279             5278
            1277             1278             5292             5291             1265             1266             5280             5279
            1278             1279             5293             5292             1266             1267             5281             5280
            1279             1280             5294             5293             1267             1268             5282             5281
            1280              161             1020             5294             1268              162             1019             5282
            5060             5283             4815             4579             5059             5271             4803             4578
            5283             5284             4816             4815             5271             5272             4804             4803
            5284             5285             4817             4816             5272             5273             4805             4804
            5285             5286             4818             4817             5273             5274             4806             4805
            5286             5287             4819             4818             5274             5275             4807             4806
            5287             5288             4820             4819             5275             5276             4808             4807
            5288             5289             4821             4820             5276             5277             4809             4808
            5289             5290             4822             4821             5277             5278             4810             4809
            5290             5291             4823             4822             5278             5279             4811             4810
            5291             5292             4824             4823             5279             5280             4812             4811
            5292             5293             4825             4824             5280             5281             4813             4812
            5293             5294             4826             4825             5281             5282             4814             4813
            5294             1020              995             4826             5282             1019              994             4814
            1130             1281             5295             5061             1117             1269             5283             5060
            1281             1282             5296             5295             1269             1270             5284             5283
            1282             1283             5297             5296             1270             1271             5285             5284
            1283             1284             5298             5297             1271             1272             5286             5285
            1284             1285             5299             5298             1272             1273             5287             5286
            1285             1286             5300             5299             1273             1274             5288             5287
            1286             1287             5301             5300             1274             1275             5289             5288
            1287             1288             5302             5301             1275             1276             5290             5289
            1288             1289             5303             5302             1276             1277             5291             5290
            1289             1290             5304             5303             1277             1278             5292             5291
            1290             1291             5305             5304             1278             1279             5293             5292
            1291             1292             5306             5305             1279             1280             5294             5293
            1292              160             1021             5306             1280              161             1020             5294
            5061             5295             4827             4580             5060             5283             4815             4579
            5295             5296             4828             4827             5283             5284             4816             4815
            5296             5297             4829             4828             5284             5285             4817             4816
            5297             5298             4830             4829             5285             5286             4818             4817
            5298             5299             4831             4830             5286             5287             4819             4818
            5299             5300             4832             4831             5287             5288             4820             4819
            5300             5301             4833             4832             5288             5289             4821             4820
            5301             5302             4834             4833             5289             5290             4822             4821
            5302             5303             4835             4834             5290             5291             4823             4822
            5303             5304             4836             4835             5291             5292             4824             4823
            5304             5305             4837             4836             5292             5293             4825             4824
            5305             5306             4838             4837             5293             5294             4826             4825
            5306             1021              996             4838             5294             1020              995             4826
            1143             1293             5307             5062             1130             1281             5295             5061
            1293             1294             5308             5307             1281             1282             5296             5295
            1294             1295             5309             5308             1282             1283             5297             5296
            1295             1296             5310             5309             1283             1284             5298             5297
            1296             1297             5311             5310             1284             1285             5299             5298
            1297             1298             5312             5311             1285             1286             5300             5299
            1298             1299             5313             5312             1286             1287             5301             5300
            1299             1300             5314             5313             1287             1288             5302             5301
            1300             1301             5315             5314             1288             1289             5303             5302
            1301             1302             5316             5315             1289             1290             5304             5303
            1302             1303             5317             5316             1290             1291             5305             5304
            1303             1304             5318             5317             1291             1292             5306             5305
            1304              159             1022             5318             1292              160             1021             5306
            5062             5307             4839             4581             5061             5295             4827             4580
            5307             5308             4840             4839             5295             5296             4828             4827
            5308             5309             4841             4840             5296             5297             4829             4828
            5309             5310             4842             4841             5297             5298             4830             4829
            5310             5311             4843             4842             5298             5299             4831             4830
            5311             5312             4844             4843             5299             5300             4832             4831
            5312             5313             4845             4844             5300             5301             4833             4832
            5313             5314             4846             4845             5301             5302             4834             4833
            5314             5315             4847             4846             5302             5303             4835             4834
            5315             5316             4848             4847             5303             5304             4836             4835
            5316             5317             4849             4848             5304             5305             4837             4836
            5317             5318             4850             4849             5305             5306             4838             4837
            5318             1022              997             4850             5306             1021              996             4838
            1156             1305             5319             5063             1143             1293             5307             5062
            1305             1306             5320             5319             1293             1294             5308             5307
            1306             1307             5321             5320             1294             1295             5309             5308
            1307             1308             5322             5321             1295             1296             5310             5309
            1308             1309             5323             5322             1296             1297             5311             5310
            1309             1310             5324             5323             1297             1298             5312             5311
            1310             1311             5325             5324             1298             1299             5313             5312
            1311             1312             5326             5325             1299             1300             5314             5313
            1312             1313             5327             5326             1300             1301             5315             5314
            1313             1314             5328             5327             1301             1302             5316             5315
            1314             1315             5329             5328             1302             1303             5317             5316
            1315             1316             5330             5329             1303             1304             5318             5317
            1316              158             1023             5330             1304              159             1022             5318
            5063             5319             4851             4582             5062             5307             4839             4581
            5319             5320             4852             4851             5307             5308             4840             4839
            5320             5321             4853             4852             5308             5309             4841             4840
            5321             5322             4854             4853             5309             5310             4842             4841
            5322             5323             4855             4854             5310             5311             4843             4842
            5323             5324             4856             4855             5311             5312             4844             4843
            5324             5325             4857             4856             5312             5313             4845             4844
            5325             5326             4858             4857             5313             5314             4846             4845
            5326             5327             4859             4858             5314             5315             4847             4846
            5327             5328             4860             4859             5315             5316             4848             4847
            5328             5329             4861             4860             5316             5317             4849             4848
            5329             5330             4862             4861             5317             5318             4850             4849
            5330             1023              998             4862             5318             1022              997             4850
            1169             1317             5331             5064             1156             1305             5319             5063
            1317             1318             5332             5331             1305             1306             5320             5319
            1318             1319             5333             5332             1306             1307             5321             5320
            1319             1320             5334             5333             1307             1308             5322             5321
            1320             1321             5335             5334             1308             1309             5323             5322
            1321             1322             5336             5335             1309             1310             5324             5323
            1322             1323             5337             5336             1310             1311             5325             5324
            1323             1324             5338             5337             1311             1312             5326             5325
            1324             1325             5339             5338             1312             1313             5327             5326
            1325             1326             5340             5339             1313             1314             5328             5327
            1326             1327             5341             5340             1314             1315             5329             5328
            1327             1328             5342             5341             1315             1316             5330             5329
            1328              157             1024             5342             1316              158             1023             5330
            5064             5331             4863             4583             5063             5319             4851             4582
            5331             5332             4864             4863             5319             5320             4852             4851
            5332             5333             4865             4864             5320             5321             4853             4852
            5333             5334             4866             4865             5321             5322             4854             4853
            5334             5335             4867             4866             5322             5323             4855             4854
            5335             5336             4868             4867             5323             5324             4856             4855
            5336             5337             4869             4868             5324             5325             4857             4856
            5337             5338             4870             4869             5325             5326             4858             4857
            5338             5339             4871             4870             5326             5327             4859             4858
            5339             5340             4872             4871             5327             5328             4860             4859
            5340             5341             4873             4872             5328             5329             4861             4860
            5341             5342             4874             4873             5329             5330             4862             4861
            5342             1024              999             4874             5330             1023              998             4862
            1182             1329             5343             5065             1169             1317             5331             5064
            1329             1330             5344             5343             1317             1318             5332             5331
            1330             1331             5345             5344             1318             1319             5333             5332
            1331             1332             5346             5345             1319             1320             5334             5333
            1332             1333             5347             5346             1320             1321             5335             5334
            1333             1334             5348             5347             1321             1322             5336             5335
            1334             1335             5349             5348             1322             1323             5337             5336
            1335             1336             5350             5349             1323             1324             5338             5337
            1336             1337             5351             5350             1324             1325             5339             5338
            1337             1338             5352             5351             1325             1326             5340             5339
            1338             1339             5353             5352             1326             1327             5341             5340
            1339             1340             5354             5353             1327             1328             5342             5341
            1340              156             1025             5354             1328              157             1024             5342
            5065             5343             4875             4584             5064             5331             4863             4583
            5343             5344             4876             4875             5331             5332             4864             4863
            5344             5345             4877             4876             5332             5333             4865             4864
            5345             5346             4878             4877             5333             5334             4866             4865
            5346             5347             4879             4878             5334             5335             4867             4866
            5347             5348             4880             4879             5335             5336             4868             4867
            5348             5349             4881             4880             5336             5337             4869             4868
            5349             5350             4882             4881             5337             5338             4870             4869
            5350             5351             4883             4882             5338             5339             4871             4870
            5351             5352             4884             4883             5339             5340             4872             4871
            5352             5353             4885             4884             5340             5341             4873             4872
            5353             5354             4886             4885             5341             5342             4874             4873
            5354             1025             1000             4886             5342             1024              999             4874
            1195             1341             5355             5066             1182             1329             5343             5065
            1341             1342             5356             5355             1329             1330             5344             5343
            1342             1343             5357             5356             1330             1331             5345             5344
            1343             1344             5358             5357             1331             1332             5346             5345
            1344             1345             5359             5358             1332             1333             5347             5346
            1345             1346             5360             5359             1333             1334             5348             5347
            1346             1347             5361             5360             1334             1335             5349             5348
            1347             1348             5362             5361             1335             1336             5350             5349
            1348             1349             5363             5362             1336             1337             5351             5350
            1349             1350             5364             5363             1337             1338             5352             5351
            1350             1351             5365             5364             1338             1339             5353             5352
            1351             1352             5366             5365             1339             1340             5354             5353
            1352              155             1026             5366             1340              156             1025             5354
            5066             5355             4887             4585             5065             5343             4875             4584
            5355             5356             4888             4887             5343             5344             4876             4875
            5356             5357             4889             4888             5344             5345             4877             4876
            5357             5358             4890             4889             5345             5346             4878             4877
            5358             5359             4891             4890             5346             5347             4879             4878
            5359             5360             4892             4891             5347             5348             4880             4879
            5360             5361             4893             4892             5348             5349             4881             4880
            5361             5362             4894             4893             5349             5350             4882             4881
            5362             5363             4895             4894             5350             5351             4883             4882
            5363             5364             4896             4895             5351             5352             4884             4883
            5364             5365             4897             4896             5352             5353             4885             4884
            5365             5366             4898             4897             5353             5354             4886             4885
            5366             1026             1001             4898             5354             1025             1000             4886
            1208             1353             5067             4610             1195             1341             5355             5066
            1353             1354             5068             5067             1341             1342             5356             5355
            1354             1355             5069             5068             1342             1343             5357             5356
            1355             1356             5070             5069             1343             1344             5358             5357
            1356             1357             5071             5070             1344             1345             5359             5358
            1357             1358             5072             5071             1345             1346             5360             5359
            1358             1359             5073             5072             1346             1347             5361             5360
            1359             1360             5074             5073             1347             1348             5362             5361
            1360             1361             5075             5074             1348             1349             5363             5362
            1361             1362             5076             5075             1349             1350             5364             5363
            1362             1363             5077             5076             1350             1351             5365             5364
            1363             1364             5078             5077             1351             1352             5366             5365
            1364              154             1027             5078             1352              155             1026             5366
            4610             5067             4598             4573             5066             5355             4887             4585
            5067             5068             4599             4598             5355             5356             4888             4887
            5068             5069             4600             4599             5356             5357             4889             4888
            5069             5070             4601             4600             5357             5358             4890             4889
            5070             5071             4602             4601             5358             5359             4891             4890
            5071             5072             4603             4602             5359             5360             4892             4891
            5072             5073             4604             4603             5360             5361             4893             4892
            5073             5074             4605             4604             5361             5362             4894             4893
            5074             5075             4606             4605             5362             5363             4895             4894
            5075             5076             4607             4606             5363             5364             4896             4895
            5076             5077             4608             4607             5364             5365             4897             4896
            5077             5078             4609             4608             5365             5366             4898             4897
            5078             1027             1002             4609             5366             1026             1001             4898
             977              978             5367             5043              129              130             1365             1196
             978              979             5368             5367              130              131             1366             1365
             979              980             5369             5368              131              132             1367             1366
             980              981             5370             5369              132              133             1368             1367
             981              982             5371             5370              133              134             1369             1368
             982              983             5372             5371              134              135             1370             1369
             983              984             5373             5372              135              136             1371             1370
             984              985             5374             5373              136              137             1372             1371
             985              986             5375             5374              137              138             1373             1372
             986              987             5376             5375              138              139             1374             1373
             987              988             5377             5376              139              140             1375             1374
             988              989             5378             5377              140              141             1376             1375
             989               91             1028             5378              141                6              142             1376
            5043             5367             5379             5044             1196             1365             1377             1197
            5367             5368             5380             5379             1365             1366             1378             1377
            5368             5369             5381             5380             1366             1367             1379             1378
            5369             5370             5382             5381             1367             1368             1380             1379
            5370             5371             5383             5382             1368             1369             1381             1380
            5371             5372             5384             5383             1369             1370             1382             1381
            5372             5373             5385             5384             1370             1371             1383             1382
            5373             5374             5386             5385             1371             1372             1384             1383
            5374             5375             5387             5386             1372             1373             1385             1384
            5375             5376             5388             5387             1373             1374             1386             1385
            5376             5377             5389             5388             1374             1375             1387             1386
            5377             5378             5390             5389             1375             1376             1388             1387
            5378             1028             1029             5390             1376              142              143             1388
            5044             5379             5391             5045             1197             1377             1389             1198
            5379             5380             5392             5391             1377             1378             1390             1389
            5380             5381             5393             5392             1378             1379             1391             1390
            5381             5382             5394             5393             1379             1380             1392             1391
            5382             5383             5395             5394             1380             1381             1393             1392
            5383             5384             5396             5395             1381             1382             1394             1393
            5384             5385             5397             5396             1382             1383             1395             1394
            5385             5386             5398             5397             1383             1384             1396             1395
            5386             5387             5399             5398             1384             1385             1397             1396
            5387             5388             5400             5399             1385             1386             1398             1397
            5388             5389             5401             5400             1386             1387             1399             1398
            5389             5390             5402             5401             1387             1388             1400             1399
            5390             1029             1030             5402             1388              143              144             1400
            5045             5391             5403             5046             1198             1389             1401             1199
            5391             5392             5404             5403             1389             1390             1402             1401
            5392             5393             5405             5404             1390             1391             1403             1402
            5393             5394             5406             5405             1391             1392             1404             1403
            5394             5395             5407             5406             1392             1393             1405             1404
            5395             5396             5408             5407             1393             1394             1406             1405
            5396             5397             5409             5408             1394             1395             1407             1406
            5397             5398             5410             5409             1395             1396             1408             1407
            5398             5399             5411             5410             1396             1397             1409             1408
            5399             5400             5412             5411             1397             1398             1410             1409
            5400             5401             5413             5412             1398             1399             1411             1410
            5401             5402             5414             5413             1399             1400             1412             1411
            5402             1030             1031             5414             1400              144              145             1412
            5046             5403             5415             5047             1199             1401             1413             1200
            5403             5404             5416             5415             1401             1402             1414             1413
            5404             5405             5417             5416             1402             1403             1415             1414
            5405             5406             5418             5417             1403             1404             1416             1415
            5406             5407             5419             5418             1404             1405             1417             1416
            5407             5408             5420             5419             1405             1406             1418             1417
            5408             5409             5421             5420             1406             1407             1419             1418
            5409             5410             5422             5421             1407             1408             1420             1419
            5410             5411             5423             5422             1408             1409             1421             1420
            5411             5412             5424             5423             1409             1410             1422             1421
            5412             5413             5425             5424             1410             1411             1423             1422
            5413             5414             5426             5425             1411             1412             1424             1423
            5414             1031             1032             5426             1412              145              146             1424
            5047             5415             5427             5048             1200             1413             1425             1201
            5415             5416             5428             5427             1413             1414             1426             1425
            5416             5417             5429             5428             1414             1415             1427             1426
            5417             5418             5430             5429             1415             1416             1428             1427
            5418             5419             5431             5430             1416             1417             1429             1428
            5419             5420             5432             5431             1417             1418             1430             1429
            5420             5421             5433             5432             1418             1419             1431             1430
            5421             5422             5434             5433             1419             1420             1432             1431
            5422             5423             5435             5434             1420             1421             1433             1432
            5423             5424             5436             5435             1421             1422             1434             1433
            5424             5425             5437             5436             1422             1423             1435             1434
            5425             5426             5438             5437             1423             1424             1436             1435
            5426             1032             1033             5438             1424              146              147             1436
            5048             5427             5439             5049             1201             1425             1437             1202
            5427             5428             5440             5439             1425             1426             1438             1437
            5428             5429             5441             5440             1426             1427             1439             1438
            5429             5430             5442             5441             1427             1428             1440             1439
            5430             5431             5443             5442             1428             1429             1441             1440
            5431             5432             5444             5443             1429             1430             1442             1441
            5432             5433             5445             5444             1430             1431             1443             1442
            5433             5434             5446             5445             1431             1432             1444             1443
            5434             5435             5447             5446             1432             1433             1445             1444
            5435             5436             5448             5447             1433             1434             1446             1445
            5436             5437             5449             5448             1434             1435             1447             1446
            5437             5438             5450             5449             1435             1436             1448             1447
            5438             1033             1034             5450             1436              147              148             1448
            5049             5439             5451             5050             1202             1437             1449             1203
            5439             5440             5452             5451             1437             1438             1450             1449
            5440             5441             5453             5452             1438             1439             1451             1450
            5441             5442             5454             5453             1439             1440             1452             1451
            5442             5443             5455             5454             1440             1441             1453             1452
            5443             5444             5456             5455             1441             1442             1454             1453
            5444             5445             5457             5456             1442             1443             1455             1454
            5445             5446             5458             5457             1443             1444             1456             1455
            5446             5447             5459             5458             1444             1445             1457             1456
            5447             5448             5460             5459             1445             1446             1458             1457
            5448             5449             5461             5460             1446             1447             1459             1458
            5449             5450             5462             5461             1447             1448             1460             1459
            5450             1034             1035             5462             1448              148              149             1460
            5050             5451             5463             5051             1203             1449             1461             1204
            5451             5452             5464             5463             1449             1450             1462             1461
            5452             5453             5465             5464             1450             1451             1463             1462
            5453             5454             5466             5465             1451             1452             1464             1463
            5454             5455             5467             5466             1452             1453             1465             1464
            5455             5456             5468             5467             1453             1454             1466             1465
            5456             5457             5469             5468             1454             1455             1467             1466
            5457             5458             5470             5469             1455             1456             1468             1467
            5458             5459             5471             5470             1456             1457             1469             1468
            5459             5460             5472             5471             1457             1458             1470             1469
            5460             5461             5473             5472             1458             1459             1471             1470
            5461             5462             5474             5473             1459             1460             1472             1471
            5462             1035             1036             5474             1460              149              150             1472
            5051             5463             5475             5052             1204             1461             1473             1205
            5463             5464             5476             5475             1461             1462             1474             1473
            5464             5465             5477             5476             1462             1463             1475             1474
            5465             5466             5478             5477             1463             1464             1476             1475
            5466             5467             5479             5478             1464             1465             1477             1476
            5467             5468             5480             5479             1465             1466             1478             1477
            5468             5469             5481             5480             1466             1467             1479             1478
            5469             5470             5482             5481             1467             1468             1480             1479
            5470             5471             5483             5482             1468             1469             1481             1480
            5471             5472             5484             5483             1469             1470             1482             1481
            5472             5473             5485             5484             1470             1471             1483             1482
            5473             5474             5486             5485             1471             1472             1484             1483
            5474             1036             1037             5486             1472              150              151             1484
            5052             5475             5487             5053             1205             1473             1485             1206
            5475             5476             5488             5487             1473             1474             1486             1485
            5476             5477             5489             5488             1474             1475             1487             1486
            5477             5478             5490             5489             1475             1476             1488             1487
            5478             5479             5491             5490             1476             1477             1489             1488
            5479             5480             5492             5491             1477             1478             1490             1489
            5480             5481             5493             5492             1478             1479             1491             1490
            5481             5482             5494             5493             1479             1480             1492             1491
            5482             5483             5495             5494             1480             1481             1493             1492
            5483             5484             5496             5495             1481             1482             1494             1493
            5484             5485             5497             5496             1482             1483             1495             1494
            5485             5486             5498             5497             1483             1484             1496             1495
            5486             1037             1038             5498             1484              151              152             1496
            5053             5487             5499             5054             1206             1485             1497             1207
            5487             5488             5500             5499             1485             1486             1498             1497
            5488             5489             5501             5500             1486             1487             1499             1498
            5489             5490             5502             5501             1487             1488             1500             1499
            5490             5491             5503             5502             1488             1489             1501             1500
            5491             5492             5504             5503             1489             1490             1502             1501
            5492             5493             5505             5504             1490             1491             1503             1502
            5493             5494             5506             5505             1491             1492             1504             1503
            5494             5495             5507             5506             1492             1493             1505             1504
            5495             5496             5508             5507             1493             1494             1506             1505
            5496             5497             5509             5508             1494             1495             1507             1506
            5497             5498             5510             5509             1495             1496             1508             1507
            5498             1038             1039             5510             1496              152              153             1508
            5054             5499             5067             4610             1207             1497             1353             1208
            5499             5500             5068             5067             1497             1498             1354             1353
            5500             5501             5069             5068             1498             1499             1355             1354
            5501             5502             5070             5069             1499             1500             1356             1355
            5502             5503             5071             5070             1500             1501             1357             1356
            5503             5504             5072             5071             1501             1502             1358             1357
            5504             5505             5073             5072             1502             1503             1359             1358
            5505             5506             5074             5073             1503             1504             1360             1359
            5506             5507             5075             5074             1504             1505             1361             1360
            5507             5508             5076             5075             1505             1506             1362             1361
            5508             5509             5077             5076             1506             1507             1363             1362
            5509             5510             5078             5077             1507             1508             1364             1363
            5510             1039             1027             5078             1508              153              154             1364
             940              964             5042             4597              977              978             5367             5043
             964              963             5030             5042              978              979             5368             5367
             963              962             5018             5030              979              980             5369             5368
             962              961             5006             5018              980              981             5370             5369
             961              960             4994             5006              981              982             5371             5370
             960              959             4982             4994              982              983             5372             5371
             959              958             4970             4982              983              984             5373             5372
             958              957             4958             4970              984              985             5374             5373
             957              956             4946             4958              985              986             5375             5374
             956              955             4934             4946              986              987             5376             5375
             955              954             4922             4934              987              988             5377             5376
             954              953             4910             4922              988              989             5378             5377
             953               90             1014             4910              989               91             1028             5378
            4597             5042             5041             4596             5043             5367             5379             5044
            5042             5030             5029             5041             5367             5368             5380             5379
            5030             5018             5017             5029             5368             5369             5381             5380
            5018             5006             5005             5017             5369             5370             5382             5381
            5006             4994             4993             5005             5370             5371             5383             5382
            4994             4982             4981             4993             5371             5372             5384             5383
            4982             4970             4969             4981             5372             5373             5385             5384
            4970             4958             4957             4969             5373             5374             5386             5385
            4958             4946             4945             4957             5374             5375             5387             5386
            4946             4934             4933             4945             5375             5376             5388             5387
            4934             4922             4921             4933             5376             5377             5389             5388
            4922             4910             4909             4921             5377             5378             5390             5389
            4910             1014             1013             4909             5378             1028             1029             5390
            4596             5041             5040             4595             5044             5379             5391             5045
            5041             5029             5028             5040             5379             5380             5392             5391
            5029             5017             5016             5028             5380             5381             5393             5392
            5017             5005             5004             5016             5381             5382             5394             5393
            5005             4993             4992             5004             5382             5383             5395             5394
            4993             4981             4980             4992             5383             5384             5396             5395
            4981             4969             4968             4980             5384             5385             5397             5396
            4969             4957             4956             4968             5385             5386             5398             5397
            4957             4945             4944             4956             5386             5387             5399             5398
            4945             4933             4932             4944             5387             5388             5400             5399
            4933             4921             4920             4932             5388             5389             5401             5400
            4921             4909             4908             4920             5389             5390             5402             5401
            4909             1013             1012             4908             5390             1029             1030             5402
            4595             5040             5039             4594             5045             5391             5403             5046
            5040             5028             5027             5039             5391             5392             5404             5403
            5028             5016             5015             5027             5392             5393             5405             5404
            5016             5004             5003             5015             5393             5394             5406             5405
            5004             4992             4991             5003             5394             5395             5407             5406
            4992             4980             4979             4991             5395             5396             5408             5407
            4980             4968             4967             4979             5396             5397             5409             5408
            4968             4956             4955             4967             5397             5398             5410             5409
            4956             4944             4943             4955             5398             5399             5411             5410
            4944             4932             4931             4943             5399             5400             5412             5411
            4932             4920             4919             4931             5400             5401             5413             5412
            4920             4908             4907             4919             5401             5402             5414             5413
            4908             1012             1011             4907             5402             1030             1031             5414
            4594             5039             5038             4593             5046             5403             5415             5047
            5039             5027             5026             5038             5403             5404             5416             5415
            5027             5015             5014             5026             5404             5405             5417             5416
            5015             5003             5002             5014             5405             5406             5418             5417
            5003             4991             4990             5002             5406             5407             5419             5418
            4991             4979             4978             4990             5407             5408             5420             5419
            4979             4967             4966             4978             5408             5409             5421             5420
            4967             4955             4954             4966             5409             5410             5422             5421
            4955             4943             4942             4954             5410             5411             5423             5422
            4943             4931             4930             4942             5411             5412             5424             5423
            4931             4919             4918             4930             5412             5413             5425             5424
            4919             4907             4906             4918             5413             5414             5426             5425
            4907             1011             1010             4906             5414             1031             1032             5426
            4593             5038             5037             4592             5047             5415             5427             5048
            5038             5026             5025             5037             5415             5416             5428             5427
            5026             5014             5013             5025             5416             5417             5429             5428
            5014             5002             5001             5013             5417             5418             5430             5429
            5002             4990             4989             5001             5418             5419             5431             5430
            4990             4978             4977             4989             5419             5420             5432             5431
            4978             4966             4965             4977             5420             5421             5433             5432
            4966             4954             4953             4965             5421             5422             5434             5433
            4954             4942             4941             4953             5422             5423             5435             5434
            4942             4930             4929             4941             5423             5424             5436             5435
            4930             4918             4917             4929             5424             5425             5437             5436
            4918             4906             4905             4917             5425             5426             5438             5437
            4906             1010             1009             4905             5426             1032             1033             5438
            4592             5037             5036             4591             5048             5427             5439             5049
            5037             5025             5024             5036             5427             5428             5440             5439
            5025             5013             5012             5024             5428             5429             5441             5440
            5013             5001             5000             5012             5429             5430             5442             5441
            5001             4989             4988             5000             5430             5431             5443             5442
            4989             4977             4976             4988             5431             5432             5444             5443
            4977             4965             4964             4976             5432             5433             5445             5444
            4965             4953             4952             4964             5433             5434             5446             5445
            4953             4941             4940             4952             5434             5435             5447             5446
            4941             4929             4928             4940             5435             5436             5448             5447
            4929             4917             4916             4928             5436             5437             5449             5448
            4917             4905             4904             4916             5437             5438             5450             5449
            4905             1009             1008             4904             5438             1033             1034             5450
            4591             5036             5035             4590             5049             5439             5451             5050
            5036             5024             5023             5035             5439             5440             5452             5451
            5024             5012             5011             5023             5440             5441             5453             5452
            5012             5000             4999             5011             5441             5442             5454             5453
            5000             4988             4987             4999             5442             5443             5455             5454
            4988             4976             4975             4987             5443             5444             5456             5455
            4976             4964             4963             4975             5444             5445             5457             5456
            4964             4952             4951             4963             5445             5446             5458             5457
            4952             4940             4939             4951             5446             5447             5459             5458
            4940             4928             4927             4939             5447             5448             5460             5459
            4928             4916             4915             4927             5448             5449             5461             5460
            4916             4904             4903             4915             5449             5450             5462             5461
            4904             1008             1007             4903             5450             1034             1035             5462
            4590             5035             5034             4589             5050             5451             5463             5051
            5035             5023             5022             5034             5451             5452             5464             5463
            5023             5011             5010             5022             5452             5453             5465             5464
            5011             4999             4998             5010             5453             5454             5466             5465
            4999             4987             4986             4998             5454             5455             5467             5466
            4987             4975             4974             4986             5455             5456             5468             5467
            4975             4963             4962             4974             5456             5457             5469             5468
            4963             4951             4950             4962             5457             5458             5470             5469
            4951             4939             4938             4950             5458             5459             5471             5470
            4939             4927             4926             4938             5459             5460             5472             5471
            4927             4915             4914             4926             5460             5461             5473             5472
            4915             4903             4902             4914             5461             5462             5474             5473
            4903             1007             1006             4902             5462             1035             1036             5474
            4589             5034             5033             4588             5051             5463             5475             5052
            5034             5022             5021             5033             5463             5464             5476             5475
            5022             5010             5009             5021             5464             5465             5477             5476
            5010             4998             4997             5009             5465             5466             5478             5477
            4998             4986             4985             4997             5466             5467             5479             5478
            4986             4974             4973             4985             5467             5468             5480             5479
            4974             4962             4961             4973             5468             5469             5481             5480
            4962             4950             4949             4961             5469             5470             5482             5481
            4950             4938             4937             4949             5470             5471             5483             5482
            4938             4926             4925             4937             5471             5472             5484             5483
            4926             4914             4913             4925             5472             5473             5485             5484
            4914             4902             4901             4913             5473             5474             5486             5485
            4902             1006             1005             4901             5474             1036             1037             5486
            4588             5033             5032             4587             5052             5475             5487             5053
            5033             5021             5020             5032             5475             5476             5488             5487
            5021             5009             5008             5020             5476             5477             5489             5488
            5009             4997             4996             5008             5477             5478             5490             5489
            4997             4985             4984             4996             5478             5479             5491             5490
            4985             4973             4972             4984             5479             5480             5492             5491
            4973             4961             4960             4972             5480             5481             5493             5492
            4961             4949             4948             4960             5481             5482             5494             5493
            4949             4937             4936             4948             5482             5483             5495             5494
            4937             4925             4924             4936             5483             5484             5496             5495
            4925             4913             4912             4924             5484             5485             5497             5496
            4913             4901             4900             4912             5485             5486             5498             5497
            4901             1005             1004             4900             5486             1037             1038             5498
            4587             5032             5031             4586             5053             5487             5499             5054
            5032             5020             5019             5031             5487             5488             5500             5499
            5020             5008             5007             5019             5488             5489             5501             5500
            5008             4996             4995             5007             5489             5490             5502             5501
            4996             4984             4983             4995             5490             5491             5503             5502
            4984             4972             4971             4983             5491             5492             5504             5503
            4972             4960             4959             4971             5492             5493             5505             5504
            4960             4948             4947             4959             5493             5494             5506             5505
            4948             4936             4935             4947             5494             5495             5507             5506
            4936             4924             4923             4935             5495             5496             5508             5507
            4924             4912             4911             4923             5496             5497             5509             5508
            4912             4900             4899             4911             5497             5498             5510             5509
            4900             1004             1003             4899             5498             1038             1039             5510
            4586             5031             4598             4573             5054             5499             5067             4610
            5031             5019             4599             4598             5499             5500             5068             5067
            5019             5007             4600             4599             5500             5501             5069             5068
            5007             4995             4601             4600             5501             5502             5070             5069
            4995             4983             4602             4601             5502             5503             5071             5070
            4983             4971             4603             4602             5503             5504             5072             5071
            4971             4959             4604             4603             5504             5505             5073             5072
            4959             4947             4605             4604             5505             5506             5074             5073
            4947             4935             4606             4605             5506             5507             5075             5074
            4935             4923             4607             4606             5507             5508             5076             5075
            4923             4911             4608             4607             5508             5509             5077             5076
            4911             4899             4609             4608             5509             5510             5078             5077
            4899             1003             1002             4609             5510             1039             1027             5078
            1002             1001             5549             5535               75               74             1510             1509
            1001             1000             5550             5549               74               73             1511             1510
            1000              999             5551             5550               73               72             1512             1511
             999              998             5552             5551               72               71             1513             1512
             998              997             5553             5552               71               70             1514             1513
             997              996             5554             5553               70               69             1515             1514
             996              995             5555             5554               69               68             1516             1515
             995              994             5556             5555               68               67             1517             1516
             994              993             5557             5556               67               66             1518             1517
             993              992             5558             5557               66               65             1519             1518
             992              991             5559             5558               65               64             1520             1519
             991              990             5560             5559               64               63             1521             1520
             990               89             1978             5560               63                2              167             1521
            5535             5549             5561             5534             1509             1510             1523             1522
            5549             5550             5562             5561             1510             1511             1524             1523
            5550             5551             5563             5562             1511             1512             1525             1524
            5551             5552             5564             5563             1512             1513             1526             1525
            5552             5553             5565             5564             1513             1514             1527             1526
            5553             5554             5566             5565             1514             1515             1528             1527
            5554             5555             5567             5566             1515             1516             1529             1528
            5555             5556             5568             5567             1516             1517             1530             1529
            5556             5557             5569             5568             1517             1518             1531             1530
            5557             5558             5570             5569             1518             1519             1532             1531
            5558             5559             5571             5570             1519             1520             1533             1532
            5559             5560             5572             5571             1520             1521             1534             1533
            5560             1978             1979             5572             1521              167              168             1534
            5534             5561             5573             5533             1522             1523             1536             1535
            5561             5562             5574             5573             1523             1524             1537             1536
            5562             5563             5575             5574             1524             1525             1538             1537
            5563             5564             5576             5575             1525             1526             1539             1538
            5564             5565             5577             5576             1526             1527             1540             1539
            5565             5566             5578             5577             1527             1528             1541             1540
            5566             5567             5579             5578             1528             1529             1542             1541
            5567             5568             5580             5579             1529             1530             1543             1542
            5568             5569             5581             5580             1530             1531             1544             1543
            5569             5570             5582             5581             1531             1532             1545             1544
            5570             5571             5583             5582             1532             1533             1546             1545
            5571             5572             5584             5583             1533             1534             1547             1546
            5572             1979             1980             5584             1534              168              169             1547
            5533             5573             5585             5532             1535             1536             1549             1548
            5573             5574             5586             5585             1536             1537             1550             1549
            5574             5575             5587             5586             1537             1538             1551             1550
            5575             5576             5588             5587             1538             1539             1552             1551
            5576             5577             5589             5588             1539             1540             1553             1552
            5577             5578             5590             5589             1540             1541             1554             1553
            5578             5579             5591             5590             1541             1542             1555             1554
            5579             5580             5592             5591             1542             1543             1556             1555
            5580             5581             5593             5592             1543             1544             1557             1556
            5581             5582             5594             5593             1544             1545             1558             1557
            5582             5583             5595             5594             1545             1546             1559             1558
            5583             5584             5596             5595             1546             1547             1560             1559
            5584             1980             1981             5596             1547              169              170             1560
            5532             5585             5597             5531             1548             1549             1562             1561
            5585             5586             5598             5597             1549             1550             1563             1562
            5586             5587             5599             5598             1550             1551             1564             1563
            5587             5588             5600             5599             1551             1552             1565             1564
            5588             5589             5601             5600             1552             1553             1566             1565
            5589             5590             5602             5601             1553             1554             1567             1566
            5590             5591             5603             5602             1554             1555             1568             1567
            5591             5592             5604             5603             1555             1556             1569             1568
            5592             5593             5605             5604             1556             1557             1570             1569
            5593             5594             5606             5605             1557             1558             1571             1570
            5594             5595             5607             5606             1558             1559             1572             1571
            5595             5596             5608             5607             1559             1560             1573             1572
            5596             1981             1982             5608             1560              170              171             1573
            5531             5597             5609             5530             1561             1562             1575             1574
            5597             5598             5610             5609             1562             1563             1576             1575
            5598             5599             5611             5610             1563             1564             1577             1576
            5599             5600             5612             5611             1564             1565             1578             1577
            5600             5601             5613             5612             1565             1566             1579             1578
            5601             5602             5614             5613             1566             1567             1580             1579
            5602             5603             5615             5614             1567             1568             1581             1580
            5603             5604             5616             5615             1568             1569             1582             1581
            5604             5605             5617             5616             1569             1570             1583             1582
            5605             5606             5618             5617             1570             1571             1584             1583
            5606             5607             5619             5618             1571             1572             1585             1584
            5607             5608             5620             5619             1572             1573             1586             1585
            5608             1982             1983             5620             1573              171              172             1586
            5530             5609             5621             5529             1574             1575             1588             1587
            5609             5610             5622             5621             1575             1576             1589             1588
            5610             5611             5623             5622             1576             1577             1590             1589
            5611             5612             5624             5623             1577             1578             1591             1590
            5612             5613             5625             5624             1578             1579             1592             1591
            5613             5614             5626             5625             1579             1580             1593             1592
            5614             5615             5627             5626             1580             1581             1594             1593
            5615             5616             5628             5627             1581             1582             1595             1594
            5616             5617             5629             5628             1582             1583             1596             1595
            5617             5618             5630             5629             1583             1584             1597             1596
            5618             5619             5631             5630             1584             1585             1598             1597
            5619             5620             5632             5631             1585             1586             1599             1598
            5620             1983             1984             5632             1586              172              173             1599
            5529             5621             5633             5528             1587             1588             1601             1600
            5621             5622             5634             5633             1588             1589             1602             1601
            5622             5623             5635             5634             1589             1590             1603             1602
            5623             5624             5636             5635             1590             1591             1604             1603
            5624             5625             5637             5636             1591             1592             1605             1604
            5625             5626             5638             5637             1592             1593             1606             1605
            5626             5627             5639             5638             1593             1594             1607             1606
            5627             5628             5640             5639             1594             1595             1608             1607
            5628             5629             5641             5640             1595             1596             1609             1608
            5629             5630             5642             5641             1596             1597             1610             1609
            5630             5631             5643             5642             1597             1598             1611             1610
            5631             5632             5644             5643             1598             1599             1612             1611
            5632             1984             1985             5644             1599              173              174             1612
            5528             5633             5645             5527             1600             1601             1614             1613
            5633             5634             5646             5645             1601             1602             1615             1614
            5634             5635             5647             5646             1602             1603             1616             1615
            5635             5636             5648             5647             1603             1604             1617             1616
            5636             5637             5649             5648             1604             1605             1618             1617
            5637             5638             5650             5649             1605             1606             1619             1618
            5638             5639             5651             5650             1606             1607             1620             1619
            5639             5640             5652             5651             1607             1608             1621             1620
            5640             5641             5653             5652             1608             1609             1622             1621
            5641             5642             5654             5653             1609             1610             1623             1622
            5642             5643             5655             5654             1610             1611             1624             1623
            5643             5644             5656             5655             1611             1612             1625             1624
            5644             1985             1986             5656             1612              174              175             1625
            5527             5645             5657             5526             1613             1614             1627             1626
            5645             5646             5658             5657             1614             1615             1628             1627
            5646             5647             5659             5658             1615             1616             1629             1628
            5647             5648             5660             5659             1616             1617             1630             1629
            5648             5649             5661             5660             1617             1618             1631             1630
            5649             5650             5662             5661             1618             1619             1632             1631
            5650             5651             5663             5662             1619             1620             1633             1632
            5651             5652             5664             5663             1620             1621             1634             1633
            5652             5653             5665             5664             1621             1622             1635             1634
            5653             5654             5666             5665             1622             1623             1636             1635
            5654             5655             5667             5666             1623             1624             1637             1636
            5655             5656             5668             5667             1624             1625             1638             1637
            5656             1986             1987             5668             1625              175              176             1638
            5526             5657             5669             5525             1626             1627             1640             1639
            5657             5658             5670             5669             1627             1628             1641             1640
            5658             5659             5671             5670             1628             1629             1642             1641
            5659             5660             5672             5671             1629             1630             1643             1642
            5660             5661             5673             5672             1630             1631             1644             1643
            5661             5662             5674             5673             1631             1632             1645             1644
            5662             5663             5675             5674             1632             1633             1646             1645
            5663             5664             5676             5675             1633             1634             1647             1646
            5664             5665             5677             5676             1634             1635             1648             1647
            5665             5666             5678             5677             1635             1636             1649             1648
            5666             5667             5679             5678             1636             1637             1650             1649
            5667             5668             5680             5679             1637             1638             1651             1650
            5668             1987             1988             5680             1638              176              177             1651
            5525             5669             5681             5524             1639             1640             1653             1652
            5669             5670             5682             5681             1640             1641             1654             1653
            5670             5671             5683             5682             1641             1642             1655             1654
            5671             5672             5684             5683             1642             1643             1656             1655
            5672             5673             5685             5684             1643             1644             1657             1656
            5673             5674             5686             5685             1644             1645             1658             1657
            5674             5675             5687             5686             1645             1646             1659             1658
            5675             5676             5688             5687             1646             1647             1660             1659
            5676             5677             5689             5688             1647             1648             1661             1660
            5677             5678             5690             5689             1648             1649             1662             1661
            5678             5679             5691             5690             1649             1650             1663             1662
            5679             5680             5692             5691             1650             1651             1664             1663
            5680             1988             1989             5692             1651              177              178             1664
            5524             5681             5523             5511             1652             1653             1666             1665
            5681             5682             5522             5523             1653             1654             1667             1666
            5682             5683             5521             5522             1654             1655             1668             1667
            5683             5684             5520             5521             1655             1656             1669             1668
            5684             5685             5519             5520             1656             1657             1670             1669
            5685             5686             5518             5519             1657             1658             1671             1670
            5686             5687             5517             5518             1658             1659             1672             1671
            5687             5688             5516             5517             1659             1660             1673             1672
            5688             5689             5515             5516             1660             1661             1674             1673
            5689             5690             5514             5515             1661             1662             1675             1674
            5690             5691             5513             5514             1662             1663             1676             1675
            5691             5692             5512             5513             1663             1664             1677             1676
            5692             1989             1990             5512             1664              178              179             1677
            1990             1991             5693             5512              179              180             1678             1677
            1991             1992             5694             5693              180              181             1679             1678
            1992             1993             5695             5694              181              182             1680             1679
            1993             1994             5696             5695              182              183             1681             1680
            1994             1995             5697             5696              183              184             1682             1681
            1995             1996             5698             5697              184              185             1683             1682
            1996             1997             5699             5698              185              186             1684             1683
            1997             1998             5700             5699              186              187             1685             1684
            1998             1999             5701             5700              187              188             1686             1685
            1999             2000             5702             5701              188              189             1687             1686
            2000             2001             5703             5702              189              190             1688             1687
            2001             2002             5704             5703              190              191             1689             1688
            2002              217             2028             5704              191                7              192             1689
            5512             5693             5705             5513             1677             1678             1690             1676
            5693             5694             5706             5705             1678             1679             1691             1690
            5694             5695             5707             5706             1679             1680             1692             1691
            5695             5696             5708             5707             1680             1681             1693             1692
            5696             5697             5709             5708             1681             1682             1694             1693
            5697             5698             5710             5709             1682             1683             1695             1694
            5698             5699             5711             5710             1683             1684             1696             1695
            5699             5700             5712             5711             1684             1685             1697             1696
            5700             5701             5713             5712             1685             1686             1698             1697
            5701             5702             5714             5713             1686             1687             1699             1698
            5702             5703             5715             5714             1687             1688             1700             1699
            5703             5704             5716             5715             1688             1689             1701             1700
            5704             2028             2029             5716             1689              192              193             1701
            5513             5705             5717             5514             1676             1690             1702             1675
            5705             5706             5718             5717             1690             1691             1703             1702
            5706             5707             5719             5718             1691             1692             1704             1703
            5707             5708             5720             5719             1692             1693             1705             1704
            5708             5709             5721             5720             1693             1694             1706             1705
            5709             5710             5722             5721             1694             1695             1707             1706
            5710             5711             5723             5722             1695             1696             1708             1707
            5711             5712             5724             5723             1696             1697             1709             1708
            5712             5713             5725             5724             1697             1698             1710             1709
            5713             5714             5726             5725             1698             1699             1711             1710
            5714             5715             5727             5726             1699             1700             1712             1711
            5715             5716             5728             5727             1700             1701             1713             1712
            5716             2029             2030             5728             1701              193              194             1713
            5514             5717             5729             5515             1675             1702             1714             1674
            5717             5718             5730             5729             1702             1703             1715             1714
            5718             5719             5731             5730             1703             1704             1716             1715
            5719             5720             5732             5731             1704             1705             1717             1716
            5720             5721             5733             5732             1705             1706             1718             1717
            5721             5722             5734             5733             1706             1707             1719             1718
            5722             5723             5735             5734             1707             1708             1720             1719
            5723             5724             5736             5735             1708             1709             1721             1720
            5724             5725             5737             5736             1709             1710             1722             1721
            5725             5726             5738             5737             1710             1711             1723             1722
            5726             5727             5739             5738             1711             1712             1724             1723
            5727             5728             5740             5739             1712             1713             1725             1724
            5728             2030             2031             5740             1713              194              195             1725
            5515             5729             5741             5516             1674             1714             1726             1673
            5729             5730             5742             5741             1714             1715             1727             1726
            5730             5731             5743             5742             1715             1716             1728             1727
            5731             5732             5744             5743             1716             1717             1729             1728
            5732             5733             5745             5744             1717             1718             1730             1729
            5733             5734             5746             5745             1718             1719             1731             1730
            5734             5735             5747             5746             1719             1720             1732             1731
            5735             5736             5748             5747             1720             1721             1733             1732
            5736             5737             5749             5748             1721             1722             1734             1733
            5737             5738             5750             5749             1722             1723             1735             1734
            5738             5739             5751             5750             1723             1724             1736             1735
            5739             5740             5752             5751             1724             1725             1737             1736
            5740             2031             2032             5752             1725              195              196             1737
            5516             5741             5753             5517             1673             1726             1738             1672
            5741             5742             5754             5753             1726             1727             1739             1738
            5742             5743             5755             5754             1727             1728             1740             1739
            5743             5744             5756             5755             1728             1729             1741             1740
            5744             5745             5757             5756             1729             1730             1742             1741
            5745             5746             5758             5757             1730             1731             1743             1742
            5746             5747             5759             5758             1731             1732             1744             1743
            5747             5748             5760             5759             1732             1733             1745             1744
            5748             5749             5761             5760             1733             1734             1746             1745
            5749             5750             5762             5761             1734             1735             1747             1746
            5750             5751             5763             5762             1735             1736             1748             1747
            5751             5752             5764             5763             1736             1737             1749             1748
            5752             2032             2033             5764             1737              196              197             1749
            5517             5753             5765             5518             1672             1738             1750             1671
            5753             5754             5766             5765             1738             1739             1751             1750
            5754             5755             5767             5766             1739             1740             1752             1751
            5755             5756             5768             5767             1740             1741             1753             1752
            5756             5757             5769             5768             1741             1742             1754             1753
            5757             5758             5770             5769             1742             1743             1755             1754
            5758             5759             5771             5770             1743             1744             1756             1755
            5759             5760             5772             5771             1744             1745             1757             1756
            5760             5761             5773             5772             1745             1746             1758             1757
            5761             5762             5774             5773             1746             1747             1759             1758
            5762             5763             5775             5774             1747             1748             1760             1759
            5763             5764             5776             5775             1748             1749             1761             1760
            5764             2033             2034             5776             1749              197              198             1761
            5518             5765             5777             5519             1671             1750             1762             1670
            5765             5766             5778             5777             1750             1751             1763             1762
            5766             5767             5779             5778             1751             1752             1764             1763
            5767             5768             5780             5779             1752             1753             1765             1764
            5768             5769             5781             5780             1753             1754             1766             1765
            5769             5770             5782             5781             1754             1755             1767             1766
            5770             5771             5783             5782             1755             1756             1768             1767
            5771             5772             5784             5783             1756             1757             1769             1768
            5772             5773             5785             5784             1757             1758             1770             1769
            5773             5774             5786             5785             1758             1759             1771             1770
            5774             5775             5787             5786             1759             1760             1772             1771
            5775             5776             5788             5787             1760             1761             1773             1772
            5776             2034             2035             5788             1761              198              199             1773
            5519             5777             5789             5520             1670             1762             1774             1669
            5777             5778             5790             5789             1762             1763             1775             1774
            5778             5779             5791             5790             1763             1764             1776             1775
            5779             5780             5792             5791             1764             1765             1777             1776
            5780             5781             5793             5792             1765             1766             1778             1777
            5781             5782             5794             5793             1766             1767             1779             1778
            5782             5783             5795             5794             1767             1768             1780             1779
            5783             5784             5796             5795             1768             1769             1781             1780
            5784             5785             5797             5796             1769             1770             1782             1781
            5785             5786             5798             5797             1770             1771             1783             1782
            5786             5787             5799             5798             1771             1772             1784             1783
            5787             5788             5800             5799             1772             1773             1785             1784
            5788             2035             2036             5800             1773              199              200             1785
            5520             5789             5801             5521             1669             1774             1786             1668
            5789             5790             5802             5801             1774             1775             1787             1786
            5790             5791             5803             5802             1775             1776             1788             1787
            5791             5792             5804             5803             1776             1777             1789             1788
            5792             5793             5805             5804             1777             1778             1790             1789
            5793             5794             5806             5805             1778             1779             1791             1790
            5794             5795             5807             5806             1779             1780             1792             1791
            5795             5796             5808             5807             1780             1781             1793             1792
            5796             5797             5809             5808             1781             1782             1794             1793
            5797             5798             5810             5809             1782             1783             1795             1794
            5798             5799             5811             5810             1783             1784             1796             1795
            5799             5800             5812             5811             1784             1785             1797             1796
            5800             2036             2037             5812             1785              200              201             1797
            5521             5801             5813             5522             1668             1786             1798             1667
            5801             5802             5814             5813             1786             1787             1799             1798
            5802             5803             5815             5814             1787             1788             1800             1799
            5803             5804             5816             5815             1788             1789             1801             1800
            5804             5805             5817             5816             1789             1790             1802             1801
            5805             5806             5818             5817             1790             1791             1803             1802
            5806             5807             5819             5818             1791             1792             1804             1803
            5807             5808             5820             5819             1792             1793             1805             1804
            5808             5809             5821             5820             1793             1794             1806             1805
            5809             5810             5822             5821             1794             1795             1807             1806
            5810             5811             5823             5822             1795             1796             1808             1807
            5811             5812             5824             5823             1796             1797             1809             1808
            5812             2037             2038             5824             1797              201              202             1809
            5522             5813             5825             5523             1667             1798             1810             1666
            5813             5814             5826             5825             1798             1799             1811             1810
            5814             5815             5827             5826             1799             1800             1812             1811
            5815             5816             5828             5827             1800             1801             1813             1812
            5816             5817             5829             5828             1801             1802             1814             1813
            5817             5818             5830             5829             1802             1803             1815             1814
            5818             5819             5831             5830             1803             1804             1816             1815
            5819             5820             5832             5831             1804             1805             1817             1816
            5820             5821             5833             5832             1805             1806             1818             1817
            5821             5822             5834             5833             1806             1807             1819             1818
            5822             5823             5835             5834             1807             1808             1820             1819
            5823             5824             5836             5835             1808             1809             1821             1820
            5824             2038             2039             5836             1809              202              203             1821
            5523             5825             5536             5511             1666             1810             1822             1665
            5825             5826             5537             5536             1810             1811             1823             1822
            5826             5827             5538             5537             1811             1812             1824             1823
            5827             5828             5539             5538             1812             1813             1825             1824
            5828             5829             5540             5539             1813             1814             1826             1825
            5829             5830             5541             5540             1814             1815             1827             1826
            5830             5831             5542             5541             1815             1816             1828             1827
            5831             5832             5543             5542             1816             1817             1829             1828
            5832             5833             5544             5543             1817             1818             1830             1829
            5833             5834             5545             5544             1818             1819             1831             1830
            5834             5835             5546             5545             1819             1820             1832             1831
            5835             5836             5547             5546             1820             1821             1833             1832
            5836             2039             2040             5547             1821              203              204             1833
            2040             2041             5837             5547              204              205             1834             1833
            2041             2042             5838             5837              205              206             1835             1834
            2042             2043             5839             5838              206              207             1836             1835
            2043             2044             5840             5839              207              208             1837             1836
            2044             2045             5841             5840              208              209             1838             1837
            2045             2046             5842             5841              209              210             1839             1838
            2046             2047             5843             5842              210              211             1840             1839
            2047             2048             5844             5843              211              212             1841             1840
            2048             2049             5845             5844              212              213             1842             1841
            2049             2050             5846             5845              213              214             1843             1842
            2050             2051             5847             5846              214              215             1844             1843
            2051             2052             5848             5847              215              216             1845             1844
            2052               90             1014             5848              216                3               87             1845
            5547             5837             5849             5546             1833             1834             1846             1832
            5837             5838             5850             5849             1834             1835             1847             1846
            5838             5839             5851             5850             1835             1836             1848             1847
            5839             5840             5852             5851             1836             1837             1849             1848
            5840             5841             5853             5852             1837             1838             1850             1849
            5841             5842             5854             5853             1838             1839             1851             1850
            5842             5843             5855             5854             1839             1840             1852             1851
            5843             5844             5856             5855             1840             1841             1853             1852
            5844             5845             5857             5856             1841             1842             1854             1853
            5845             5846             5858             5857             1842             1843             1855             1854
            5846             5847             5859             5858             1843             1844             1856             1855
            5847             5848             5860             5859             1844             1845             1857             1856
            5848             1014             1013             5860             1845               87               86             1857
            5546             5849             5861             5545             1832             1846             1858             1831
            5849             5850             5862             5861             1846             1847             1859             1858
            5850             5851             5863             5862             1847             1848             1860             1859
            5851             5852             5864             5863             1848             1849             1861             1860
            5852             5853             5865             5864             1849             1850             1862             1861
            5853             5854             5866             5865             1850             1851             1863             1862
            5854             5855             5867             5866             1851             1852             1864             1863
            5855             5856             5868             5867             1852             1853             1865             1864
            5856             5857             5869             5868             1853             1854             1866             1865
            5857             5858             5870             5869             1854             1855             1867             1866
            5858             5859             5871             5870             1855             1856             1868             1867
            5859             5860             5872             5871             1856             1857             1869             1868
            5860             1013             1012             5872             1857               86               85             1869
            5545             5861             5873             5544             1831             1858             1870             1830
            5861             5862             5874             5873             1858             1859             1871             1870
            5862             5863             5875             5874             1859             1860             1872             1871
            5863             5864             5876             5875             1860             1861             1873             1872
            5864             5865             5877             5876             1861             1862             1874             1873
            5865             5866             5878             5877             1862             1863             1875             1874
            5866             5867             5879             5878             1863             1864             1876             1875
            5867             5868             5880             5879             1864             1865             1877             1876
            5868             5869             5881             5880             1865             1866             1878             1877
            5869             5870             5882             5881             1866             1867             1879             1878
            5870             5871             5883             5882             1867             1868             1880             1879
            5871             5872             5884             5883             1868             1869             1881             1880
            5872             1012             1011             5884             1869               85               84             1881
            5544             5873             5885             5543             1830             1870             1882             1829
            5873             5874             5886             5885             1870             1871             1883             1882
            5874             5875             5887             5886             1871             1872             1884             1883
            5875             5876             5888             5887             1872             1873             1885             1884
            5876             5877             5889             5888             1873             1874             1886             1885
            5877             5878             5890             5889             1874             1875             1887             1886
            5878             5879             5891             5890             1875             1876             1888             1887
            5879             5880             5892             5891             1876             1877             1889             1888
            5880             5881             5893             5892             1877             1878             1890             1889
            5881             5882             5894             5893             1878             1879             1891             1890
            5882             5883             5895             5894             1879             1880             1892             1891
            5883             5884             5896             5895             1880             1881             1893             1892
            5884             1011             1010             5896             1881               84               83             1893
            5543             5885             5897             5542             1829             1882             1894             1828
            5885             5886             5898             5897             1882             1883             1895             1894
            5886             5887             5899             5898             1883             1884             1896             1895
            5887             5888             5900             5899             1884             1885             1897             1896
            5888             5889             5901             5900             1885             1886             1898             1897
            5889             5890             5902             5901             1886             1887             1899             1898
            5890             5891             5903             5902             1887             1888             1900             1899
            5891             5892             5904             5903             1888             1889             1901             1900
            5892             5893             5905             5904             1889             1890             1902             1901
            5893             5894             5906             5905             1890             1891             1903             1902
            5894             5895             5907             5906             1891             1892             1904             1903
            5895             5896             5908             5907             1892             1893             1905             1904
            5896             1010             1009             5908             1893               83               82             1905
            5542             5897             5909             5541             1828             1894             1906             1827
            5897             5898             5910             5909             1894             1895             1907             1906
            5898             5899             5911             5910             1895             1896             1908             1907
            5899             5900             5912             5911             1896             1897             1909             1908
            5900             5901             5913             5912             1897             1898             1910             1909
            5901             5902             5914             5913             1898             1899             1911             1910
            5902             5903             5915             5914             1899             1900             1912             1911
            5903             5904             5916             5915             1900             1901             1913             1912
            5904             5905             5917             5916             1901             1902             1914             1913
            5905             5906             5918             5917             1902             1903             1915             1914
            5906             5907             5919             5918             1903             1904             1916             1915
            5907             5908             5920             5919             1904             1905             1917             1916
            5908             1009             1008             5920             1905               82               81             1917
            5541             5909             5921             5540             1827             1906             1918             1826
            5909             5910             5922             5921             1906             1907             1919             1918
            5910             5911             5923             5922             1907             1908             1920             1919
            5911             5912             5924             5923             1908             1909             1921             1920
            5912             5913             5925             5924             1909             1910             1922             1921
            5913             5914             5926             5925             1910             1911             1923             1922
            5914             5915             5927             5926             1911             1912             1924             1923
            5915             5916             5928             5927             1912             1913             1925             1924
            5916             5917             5929             5928             1913             1914             1926             1925
            5917             5918             5930             5929             1914             1915             1927             1926
            5918             5919             5931             5930             1915             1916             1928             1927
            5919             5920             5932             5931             1916             1917             1929             1928
            5920             1008             1007             5932             1917               81               80             1929
            5540             5921             5933             5539             1826             1918             1930             1825
            5921             5922             5934             5933             1918             1919             1931             1930
            5922             5923             5935             5934             1919             1920             1932             1931
            5923             5924             5936             5935             1920             1921             1933             1932
            5924             5925             5937             5936             1921             1922             1934             1933
            5925             5926             5938             5937             1922             1923             1935             1934
            5926             5927             5939             5938             1923             1924             1936             1935
            5927             5928             5940             5939             1924             1925             1937             1936
            5928             5929             5941             5940             1925             1926             1938             1937
            5929             5930             5942             5941             1926             1927             1939             1938
            5930             5931             5943             5942             1927             1928             1940             1939
            5931             5932             5944             5943             1928             1929             1941             1940
            5932             1007             1006             5944             1929               80               79             1941
            5539             5933             5945             5538             1825             1930             1942             1824
            5933             5934             5946             5945             1930             1931             1943             1942
            5934             5935             5947             5946             1931             1932             1944             1943
            5935             5936             5948             5947             1932             1933             1945             1944
            5936             5937             5949             5948             1933             1934             1946             1945
            5937             5938             5950             5949             1934             1935             1947             1946
            5938             5939             5951             5950             1935             1936             1948             1947
            5939             5940             5952             5951             1936             1937             1949             1948
            5940             5941             5953             5952             1937             1938             1950             1949
            5941             5942             5954             5953             1938             1939             1951             1950
            5942             5943             5955             5954             1939             1940             1952             1951
            5943             5944             5956             5955             1940             1941             1953             1952
            5944             1006             1005             5956             1941               79               78             1953
            5538             5945             5957             5537             1824             1942             1954             1823
            5945             5946             5958             5957             1942             1943             1955             1954
            5946             5947             5959             5958             1943             1944             1956             1955
            5947             5948             5960             5959             1944             1945             1957             1956
            5948             5949             5961             5960             1945             1946             1958             1957
            5949             5950             5962             5961             1946             1947             1959             1958
            5950             5951             5963             5962             1947             1948             1960             1959
            5951             5952             5964             5963             1948             1949             1961             1960
            5952             5953             5965             5964             1949             1950             1962             1961
            5953             5954             5966             5965             1950             1951             1963             1962
            5954             5955             5967             5966             1951             1952             1964             1963
            5955             5956             5968             5967             1952             1953             1965             1964
            5956             1005             1004             5968             1953               78               77             1965
            5537             5957             5969             5536             1823             1954             1966             1822
            5957             5958             5970             5969             1954             1955             1967             1966
            5958             5959             5971             5970             1955             1956             1968             1967
            5959             5960             5972             5971             1956             1957             1969             1968
            5960             5961             5973             5972             1957             1958             1970             1969
            5961             5962             5974             5973             1958             1959             1971             1970
            5962             5963             5975             5974             1959             1960             1972             1971
            5963             5964             5976             5975             1960             1961             1973             1972
            5964             5965             5977             5976             1961             1962             1974             1973
            5965             5966             5978             5977             1962             1963             1975             1974
            5966             5967             5979             5978             1963             1964             1976             1975
            5967             5968             5980             5979             1964             1965             1977             1976
            5968             1004             1003             5980             1965               77               76             1977
            5536             5969             5524             5511             1822             1966             1652             1665
            5969             5970             5525             5524             1966             1967             1639             1652
            5970             5971             5526             5525             1967             1968             1626             1639
            5971             5972             5527             5526             1968             1969             1613             1626
            5972             5973             5528             5527             1969             1970             1600             1613
            5973             5974             5529             5528             1970             1971             1587             1600
            5974             5975             5530             5529             1971             1972             1574             1587
            5975             5976             5531             5530             1972             1973             1561             1574
            5976             5977             5532             5531             1973             1974             1548             1561
            5977             5978             5533             5532             1974             1975             1535             1548
            5978             5979             5534             5533             1975             1976             1522             1535
            5979             5980             5535             5534             1976             1977             1509             1522
            5980             1003             1002             5535             1977               76               75             1509
             990             1015             6017             5560               89               88             2003             1978
            1015              166             2078             6017               88                5              219             2003
            5560             6017             6018             5572             1978             2003             2004             1979
            6017             2078             2079             6018             2003              219              220             2004
            5572             6018             6019             5584             1979             2004             2005             1980
            6018             2079             2080             6019             2004              220              221             2005
            5584             6019             6020             5596             1980             2005             2006             1981
            6019             2080             2081             6020             2005              221              222             2006
            5596             6020             6021             5608             1981             2006             2007             1982
            6020             2081             2082             6021             2006              222              223             2007
            5608             6021             6022             5620             1982             2007             2008             1983
            6021             2082             2083             6022             2007              223              224             2008
            5620             6022             6023             5632             1983             2008             2009             1984
            6022             2083             2084             6023             2008              224              225             2009
            5632             6023             6024             5644             1984             2009             2010             1985
            6023             2084             2085             6024             2009              225              226             2010
            5644             6024             6025             5656             1985             2010             2011             1986
            6024             2085             2086             6025             2010              226              227             2011
            5656             6025             6026             5668             1986             2011             2012             1987
            6025             2086             2087             6026             2011              227              228             2012
            5668             6026             6027             5680             1987             2012             2013             1988
            6026             2087             2088             6027             2012              228              229             2013
            5680             6027             6028             5692             1988             2013             2014             1989
            6027             2088             2089             6028             2013              229              230             2014
            5692             6028             5993             5512             1989             2014             2015             1990
            6028             2089             2090             5993             2014              230              231             2015
             991             1016             6029             5559              990             1015             6017             5560
            1016              165             2091             6029             1015              166             2078             6017
            5559             6029             6030             5571             5560             6017             6018             5572
            6029             2091             2092             6030             6017             2078             2079             6018
            5571             6030             6031             5583             5572             6018             6019             5584
            6030             2092             2093             6031             6018             2079             2080             6019
            5583             6031             6032             5595             5584             6019             6020             5596
            6031             2093             2094             6032             6019             2080             2081             6020
            5595             6032             6033             5607             5596             6020             6021             5608
            6032             2094             2095             6033             6020             2081             2082             6021
            5607             6033             6034             5619             5608             6021             6022             5620
            6033             2095             2096             6034             6021             2082             2083             6022
            5619             6034             6035             5631             5620             6022             6023             5632
            6034             2096             2097             6035             6022             2083             2084             6023
            5631             6035             6036             5643             5632             6023             6024             5644
            6035             2097             2098             6036             6023             2084             2085             6024
            5643             6036             6037             5655             5644             6024             6025             5656
            6036             2098             2099             6037             6024             2085             2086             6025
            5655             6037             6038             5667             5656             6025             6026             5668
            6037             2099             2100             6038             6025             2086             2087             6026
            5667             6038             6039             5679             5668             6026             6027             5680
            6038             2100             2101             6039             6026             2087             2088             6027
            5679             6039             6040             5691             5680             6027             6028             5692
            6039             2101             2102             6040             6027             2088             2089             6028
            5691             6040             5994             5513             5692             6028             5993             5512
            6040             2102             2103             5994             6028             2089             2090             5993
             992             1017             6041             5558              991             1016             6029             5559
            1017              164             2104             6041             1016              165             2091             6029
            5558             6041             6042             5570             5559             6029             6030             5571
            6041             2104             2105             6042             6029             2091             2092             6030
            5570             6042             6043             5582             5571             6030             6031             5583
            6042             2105             2106             6043             6030             2092             2093             6031
            5582             6043             6044             5594             5583             6031             6032             5595
            6043             2106             2107             6044             6031             2093             2094             6032
            5594             6044             6045             5606             5595             6032             6033             5607
            6044             2107             2108             6045             6032             2094             2095             6033
            5606             6045             6046             5618             5607             6033             6034             5619
            6045             2108             2109             6046             6033             2095             2096             6034
            5618             6046             6047             5630             5619             6034             6035             5631
            6046             2109             2110             6047             6034             2096             2097             6035
            5630             6047             6048             5642             5631             6035             6036             5643
            6047             2110             2111             6048             6035             2097             2098             6036
            5642             6048             6049             5654             5643             6036             6037             5655
            6048             2111             2112             6049             6036             2098             2099             6037
            5654             6049             6050             5666             5655             6037             6038             5667
            6049             2112             2113             6050             6037             2099             2100             6038
            5666             6050             6051             5678             5667             6038             6039             5679
            6050             2113             2114             6051             6038             2100             2101             6039
            5678             6051             6052             5690             5679             6039             6040             5691
            6051             2114             2115             6052             6039             2101             2102             6040
            5690             6052             5995             5514             5691             6040             5994             5513
            6052             2115             2116             5995             6040             2102             2103             5994
             993             1018             6053             5557              992             1017             6041             5558
            1018              163             2117             6053             1017              164             2104             6041
            5557             6053             6054             5569             5558             6041             6042             5570
            6053             2117             2118             6054             6041             2104             2105             6042
            5569             6054             6055             5581             5570             6042             6043             5582
            6054             2118             2119             6055             6042             2105             2106             6043
            5581             6055             6056             5593             5582             6043             6044             5594
            6055             2119             2120             6056             6043             2106             2107             6044
            5593             6056             6057             5605             5594             6044             6045             5606
            6056             2120             2121             6057             6044             2107             2108             6045
            5605             6057             6058             5617             5606             6045             6046             5618
            6057             2121             2122             6058             6045             2108             2109             6046
            5617             6058             6059             5629             5618             6046             6047             5630
            6058             2122             2123             6059             6046             2109             2110             6047
            5629             6059             6060             5641             5630             6047             6048             5642
            6059             2123             2124             6060             6047             2110             2111             6048
            5641             6060             6061             5653             5642             6048             6049             5654
            6060             2124             2125             6061             6048             2111             2112             6049
            5653             6061             6062             5665             5654             6049             6050             5666
            6061             2125             2126             6062             6049             2112             2113             6050
            5665             6062             6063             5677             5666             6050             6051             5678
            6062             2126             2127             6063             6050             2113             2114             6051
            5677             6063             6064             5689             5678             6051             6052             5690
            6063             2127             2128             6064             6051             2114             2115             6052
            5689             6064             5996             5515             5690             6052             5995             5514
            6064             2128             2129             5996             6052             2115             2116             5995
             994             1019             6065             5556              993             1018             6053             5557
            1019              162             2130             6065             1018              163             2117             6053
            5556             6065             6066             5568             5557             6053             6054             5569
            6065             2130             2131             6066             6053             2117             2118             6054
            5568             6066             6067             5580             5569             6054             6055             5581
            6066             2131             2132             6067             6054             2118             2119             6055
            5580             6067             6068             5592             5581             6055             6056             5593
            6067             2132             2133             6068             6055             2119             2120             6056
            5592             6068             6069             5604             5593             6056             6057             5605
            6068             2133             2134             6069             6056             2120             2121             6057
            5604             6069             6070             5616             5605             6057             6058             5617
            6069             2134             2135             6070             6057             2121             2122             6058
            5616             6070             6071             5628             5617             6058             6059             5629
            6070             2135             2136             6071             6058             2122             2123             6059
            5628             6071             6072             5640             5629             6059             6060             5641
            6071             2136             2137             6072             6059             2123             2124             6060
            5640             6072             6073             5652             5641             6060             6061             5653
            6072             2137             2138             6073             6060             2124             2125             6061
            5652             6073             6074             5664             5653             6061             6062             5665
            6073             2138             2139             6074             6061             2125             2126             6062
            5664             6074             6075             5676             5665             6062             6063             5677
            6074             2139             2140             6075             6062             2126             2127             6063
            5676             6075             6076             5688             5677             6063             6064             5689
            6075             2140             2141             6076             6063             2127             2128             6064
            5688             6076             5997             5516             5689             6064             5996             5515
            6076             2141             2142             5997             6064             2128             2129             5996
             995             1020             6077             5555              994             1019             6065             5556
            1020              161             2143             6077             1019              162             2130             6065
            5555             6077             6078             5567             5556             6065             6066             5568
            6077             2143             2144             6078             6065             2130             2131             6066
            5567             6078             6079             5579             5568             6066             6067             5580
            6078             2144             2145             6079             6066             2131             2132             6067
            5579             6079             6080             5591             5580             6067             6068             5592
            6079             2145             2146             6080             6067             2132             2133             6068
            5591             6080             6081             5603             5592             6068             6069             5604
            6080             2146             2147             6081             6068             2133             2134             6069
            5603             6081             6082             5615             5604             6069             6070             5616
            6081             2147             2148             6082             6069             2134             2135             6070
            5615             6082             6083             5627             5616             6070             6071             5628
            6082             2148             2149             6083             6070             2135             2136             6071
            5627             6083             6084             5639             5628             6071             6072             5640
            6083             2149             2150             6084             6071             2136             2137             6072
            5639             6084             6085             5651             5640             6072             6073             5652
            6084             2150             2151             6085             6072             2137             2138             6073
            5651             6085             6086             5663             5652             6073             6074             5664
            6085             2151             2152             6086             6073             2138             2139             6074
            5663             6086             6087             5675             5664             6074             6075             5676
            6086             2152             2153             6087             6074             2139             2140             6075
            5675             6087             6088             5687             5676             6075             6076             5688
            6087             2153             2154             6088             6075             2140             2141             6076
            5687             6088             5998             5517             5688             6076             5997             5516
            6088             2154             2155             5998             6076             2141             2142             5997
             996             1021             6089             5554              995             1020             6077             5555
            1021              160             2156             6089             1020              161             2143             6077
            5554             6089             6090             5566             5555             6077             6078             5567
            6089             2156             2157             6090             6077             2143             2144             6078
            5566             6090             6091             5578             5567             6078             6079             5579
            6090             2157             2158             6091             6078             2144             2145             6079
            5578             6091             6092             5590             5579             6079             6080             5591
            6091             2158             2159             6092             6079             2145             2146             6080
            5590             6092             6093             5602             5591             6080             6081             5603
            6092             2159             2160             6093             6080             2146             2147             6081
            5602             6093             6094             5614             5603             6081             6082             5615
            6093             2160             2161             6094             6081             2147             2148             6082
            5614             6094             6095             5626             5615             6082             6083             5627
            6094             2161             2162             6095             6082             2148             2149             6083
            5626             6095             6096             5638             5627             6083             6084             5639
            6095             2162             2163             6096             6083             2149             2150             6084
            5638             6096             6097             5650             5639             6084             6085             5651
            6096             2163             2164             6097             6084             2150             2151             6085
            5650             6097             6098             5662             5651             6085             6086             5663
            6097             2164             2165             6098             6085             2151             2152             6086
            5662             6098             6099             5674             5663             6086             6087             5675
            6098             2165             2166             6099             6086             2152             2153             6087
            5674             6099             6100             5686             5675             6087             6088             5687
            6099             2166             2167             6100             6087             2153             2154             6088
            5686             6100             5999             5518             5687             6088             5998             5517
            6100             2167             2168             5999             6088             2154             2155             5998
             997             1022             6101             5553              996             1021             6089             5554
            1022              159             2169             6101             1021              160             2156             6089
            5553             6101             6102             5565             5554             6089             6090             5566
            6101             2169             2170             6102             6089             2156             2157             6090
            5565             6102             6103             5577             5566             6090             6091             5578
            6102             2170             2171             6103             6090             2157             2158             6091
            5577             6103             6104             5589             5578             6091             6092             5590
            6103             2171             2172             6104             6091             2158             2159             6092
            5589             6104             6105             5601             5590             6092             6093             5602
            6104             2172             2173             6105             6092             2159             2160             6093
            5601             6105             6106             5613             5602             6093             6094             5614
            6105             2173             2174             6106             6093             2160             2161             6094
            5613             6106             6107             5625             5614             6094             6095             5626
            6106             2174             2175             6107             6094             2161             2162             6095
            5625             6107             6108             5637             5626             6095             6096             5638
            6107             2175             2176             6108             6095             2162             2163             6096
            5637             6108             6109             5649             5638             6096             6097             5650
            6108             2176             2177             6109             6096             2163             2164             6097
            5649             6109             6110             5661             5650             6097             6098             5662
            6109             2177             2178             6110             6097             2164             2165             6098
            5661             6110             6111             5673             5662             6098             6099             5674
            6110             2178             2179             6111             6098             2165             2166             6099
            5673             6111             6112             5685             5674             6099             6100             5686
            6111             2179             2180             6112             6099             2166             2167             6100
            5685             6112             6000             5519             5686             6100             5999             5518
            6112             2180             2181             6000             6100             2167             2168             5999
             998             1023             6113             5552              997             1022             6101             5553
            1023              158             2182             6113             1022              159             2169             6101
            5552             6113             6114             5564             5553             6101             6102             5565
            6113             2182             2183             6114             6101             2169             2170             6102
            5564             6114             6115             5576             5565             6102             6103             5577
            6114             2183             2184             6115             6102             2170             2171             6103
            5576             6115             6116             5588             5577             6103             6104             5589
            6115             2184             2185             6116             6103             2171             2172             6104
            5588             6116             6117             5600             5589             6104             6105             5601
            6116             2185             2186             6117             6104             2172             2173             6105
            5600             6117             6118             5612             5601             6105             6106             5613
            6117             2186             2187             6118             6105             2173             2174             6106
            5612             6118             6119             5624             5613             6106             6107             5625
            6118             2187             2188             6119             6106             2174             2175             6107
            5624             6119             6120             5636             5625             6107             6108             5637
            6119             2188             2189             6120             6107             2175             2176             6108
            5636             6120             6121             5648             5637             6108             6109             5649
            6120             2189             2190             6121             6108             2176             2177             6109
            5648             6121             6122             5660             5649             6109             6110             5661
            6121             2190             2191             6122             6109             2177             2178             6110
            5660             6122             6123             5672             5661             6110             6111             5673
            6122             2191             2192             6123             6110             2178             2179             6111
            5672             6123             6124             5684             5673             6111             6112             5685
            6123             2192             2193             6124             6111             2179             2180             6112
            5684             6124             6001             5520             5685             6112             6000             5519
            6124             2193             2194             6001             6112             2180             2181             6000
             999             1024             6125             5551              998             1023             6113             5552
            1024              157             2195             6125             1023              158             2182             6113
            5551             6125             6126             5563             5552             6113             6114             5564
            6125             2195             2196             6126             6113             2182             2183             6114
            5563             6126             6127             5575             5564             6114             6115             5576
            6126             2196             2197             6127             6114             2183             2184             6115
            5575             6127             6128             5587             5576             6115             6116             5588
            6127             2197             2198             6128             6115             2184             2185             6116
            5587             6128             6129             5599             5588             6116             6117             5600
            6128             2198             2199             6129             6116             2185             2186             6117
            5599             6129             6130             5611             5600             6117             6118             5612
            6129             2199             2200             6130             6117             2186             2187             6118
            5611             6130             6131             5623             5612             6118             6119             5624
            6130             2200             2201             6131             6118             2187             2188             6119
            5623             6131             6132             5635             5624             6119             6120             5636
            6131             2201             2202             6132             6119             2188             2189             6120
            5635             6132             6133             5647             5636             6120             6121             5648
            6132             2202             2203             6133             6120             2189             2190             6121
            5647             6133             6134             5659             5648             6121             6122             5660
            6133             2203             2204             6134             6121             2190             2191             6122
            5659             6134             6135             5671             5660             6122             6123             5672
            6134             2204             2205             6135             6122             2191             2192             6123
            5671             6135             6136             5683             5672             6123             6124             5684
            6135             2205             2206             6136             6123             2192             2193             6124
            5683             6136             6002             5521             5684             6124             6001             5520
            6136             2206             2207             6002             6124             2193             2194             6001
            1000             1025             6137             5550              999             1024             6125             5551
            1025              156             2208             6137             1024              157             2195             6125
            5550             6137             6138             5562             5551             6125             6126             5563
            6137             2208             2209             6138             6125             2195             2196             6126
            5562             6138             6139             5574             5563             6126             6127             5575
            6138             2209             2210             6139             6126             2196             2197             6127
            5574             6139             6140             5586             5575             6127             6128             5587
            6139             2210             2211             6140             6127             2197             2198             6128
            5586             6140             6141             5598             5587             6128             6129             5599
            6140             2211             2212             6141             6128             2198             2199             6129
            5598             6141             6142             5610             5599             6129             6130             5611
            6141             2212             2213             6142             6129             2199             2200             6130
            5610             6142             6143             5622             5611             6130             6131             5623
            6142             2213             2214             6143             6130             2200             2201             6131
            5622             6143             6144             5634             5623             6131             6132             5635
            6143             2214             2215             6144             6131             2201             2202             6132
            5634             6144             6145             5646             5635             6132             6133             5647
            6144             2215             2216             6145             6132             2202             2203             6133
            5646             6145             6146             5658             5647             6133             6134             5659
            6145             2216             2217             6146             6133             2203             2204             6134
            5658             6146             6147             5670             5659             6134             6135             5671
            6146             2217             2218             6147             6134             2204             2205             6135
            5670             6147             6148             5682             5671             6135             6136             5683
            6147             2218             2219             6148             6135             2205             2206             6136
            5682             6148             6003             5522             5683             6136             6002             5521
            6148             2219             2220             6003             6136             2206             2207             6002
            1001             1026             6149             5549             1000             1025             6137             5550
            1026              155             2221             6149             1025              156             2208             6137
            5549             6149             6150             5561             5550             6137             6138             5562
            6149             2221             2222             6150             6137             2208             2209             6138
            5561             6150             6151             5573             5562             6138             6139             5574
            6150             2222             2223             6151             6138             2209             2210             6139
            5573             6151             6152             5585             5574             6139             6140             5586
            6151             2223             2224             6152             6139             2210             2211             6140
            5585             6152             6153             5597             5586             6140             6141             5598
            6152             2224             2225             6153             6140             2211             2212             6141
            5597             6153             6154             5609             5598             6141             6142             5610
            6153             2225             2226             6154             6141             2212             2213             6142
            5609             6154             6155             5621             5610             6142             6143             5622
            6154             2226             2227             6155             6142             2213             2214             6143
            5621             6155             6156             5633             5622             6143             6144             5634
            6155             2227             2228             6156             6143             2214             2215             6144
            5633             6156             6157             5645             5634             6144             6145             5646
            6156             2228             2229             6157             6144             2215             2216             6145
            5645             6157             6158             5657             5646             6145             6146             5658
            6157             2229             2230             6158             6145             2216             2217             6146
            5657             6158             6159             5669             5658             6146             6147             5670
            6158             2230             2231             6159             6146             2217             2218             6147
            5669             6159             6160             5681             5670             6147             6148             5682
            6159             2231             2232             6160             6147             2218             2219             6148
            5681             6160             6004             5523             5682             6148             6003             5522
            6160             2232             2233             6004             6148             2219             2220             6003
            1002             1027             5981             5535             1001             1026             6149             5549
            1027              154             2234             5981             1026              155             2221             6149
            5535             5981             5982             5534             5549             6149             6150             5561
            5981             2234             2235             5982             6149             2221             2222             6150
            5534             5982             5983             5533             5561             6150             6151             5573
            5982             2235             2236             5983             6150             2222             2223             6151
            5533             5983             5984             5532             5573             6151             6152             5585
            5983             2236             2237             5984             6151             2223             2224             6152
            5532             5984             5985             5531             5585             6152             6153             5597
            5984             2237             2238             5985             6152             2224             2225             6153
            5531             5985             5986             5530             5597             6153             6154             5609
            5985             2238             2239             5986             6153             2225             2226             6154
            5530             5986             5987             5529             5609             6154             6155             5621
            5986             2239             2240             5987             6154             2226             2227             6155
            5529             5987             5988             5528             5621             6155             6156             5633
            5987             2240             2241             5988             6155             2227             2228             6156
            5528             5988             5989             5527             5633             6156             6157             5645
            5988             2241             2242             5989             6156             2228             2229             6157
            5527             5989             5990             5526             5645             6157             6158             5657
            5989             2242             2243             5990             6157             2229             2230             6158
            5526             5990             5991             5525             5657             6158             6159             5669
            5990             2243             2244             5991             6158             2230             2231             6159
            5525             5991             5992             5524             5669             6159             6160             5681
            5991             2244             2245             5992             6159             2231             2232             6160
            5524             5992             5548             5511             5681             6160             6004             5523
            5992             2245             2246             5548             6160             2232             2233             6004
            2090             2247             6161             5993              231              232             2016             2015
            2247             2248             6162             6161              232              233             2017             2016
            2248             2249             6163             6162              233              234             2018             2017
            2249             2250             6164             6163              234              235             2019             2018
            2250             2251             6165             6164              235              236             2020             2019
            2251             2252             6166             6165              236              237             2021             2020
            2252             2253             6167             6166              237              238             2022             2021
            2253             2254             6168             6167              238              239             2023             2022
            2254             2255             6169             6168              239              240             2024             2023
            2255             2256             6170             6169              240              241             2025             2024
            2256             2257             6171             6170              241              242             2026             2025
            2257             2258             6172             6171              242              243             2027             2026
            2258              244             2053             6172              243                8              218             2027
            5993             6161             5693             5512             2015             2016             1991             1990
            6161             6162             5694             5693             2016             2017             1992             1991
            6162             6163             5695             5694             2017             2018             1993             1992
            6163             6164             5696             5695             2018             2019             1994             1993
            6164             6165             5697             5696             2019             2020             1995             1994
            6165             6166             5698             5697             2020             2021             1996             1995
            6166             6167             5699             5698             2021             2022             1997             1996
            6167             6168             5700             5699             2022             2023             1998             1997
            6168             6169             5701             5700             2023             2024             1999             1998
            6169             6170             5702             5701             2024             2025             2000             1999
            6170             6171             5703             5702             2025             2026             2001             2000
            6171             6172             5704             5703             2026             2027             2002             2001
            6172             2053             2028             5704             2027              218              217             2002
            2103             2259             6173             5994             2090             2247             6161             5993
            2259             2260             6174             6173             2247             2248             6162             6161
            2260             2261             6175             6174             2248             2249             6163             6162
            2261             2262             6176             6175             2249             2250             6164             6163
            2262             2263             6177             6176             2250             2251             6165             6164
            2263             2264             6178             6177             2251             2252             6166             6165
            2264             2265             6179             6178             2252             2253             6167             6166
            2265             2266             6180             6179             2253             2254             6168             6167
            2266             2267             6181             6180             2254             2255             6169             6168
            2267             2268             6182             6181             2255             2256             6170             6169
            2268             2269             6183             6182             2256             2257             6171             6170
            2269             2270             6184             6183             2257             2258             6172             6171
            2270              245             2054             6184             2258              244             2053             6172
            5994             6173             5705             5513             5993             6161             5693             5512
            6173             6174             5706             5705             6161             6162             5694             5693
            6174             6175             5707             5706             6162             6163             5695             5694
            6175             6176             5708             5707             6163             6164             5696             5695
            6176             6177             5709             5708             6164             6165             5697             5696
            6177             6178             5710             5709             6165             6166             5698             5697
            6178             6179             5711             5710             6166             6167             5699             5698
            6179             6180             5712             5711             6167             6168             5700             5699
            6180             6181             5713             5712             6168             6169             5701             5700
            6181             6182             5714             5713             6169             6170             5702             5701
            6182             6183             5715             5714             6170             6171             5703             5702
            6183             6184             5716             5715             6171             6172             5704             5703
            6184             2054             2029             5716             6172             2053             2028             5704
            2116             2271             6185             5995             2103             2259             6173             5994
            2271             2272             6186             6185             2259             2260             6174             6173
            2272             2273             6187             6186             2260             2261             6175             6174
            2273             2274             6188             6187             2261             2262             6176             6175
            2274             2275             6189             6188             2262             2263             6177             6176
            2275             2276             6190             6189             2263             2264             6178             6177
            2276             2277             6191             6190             2264             2265             6179             6178
            2277             2278             6192             6191             2265             2266             6180             6179
            2278             2279             6193             6192             2266             2267             6181             6180
            2279             2280             6194             6193             2267             2268             6182             6181
            2280             2281             6195             6194             2268             2269             6183             6182
            2281             2282             6196             6195             2269             2270             6184             6183
            2282              246             2055             6196             2270              245             2054             6184
            5995             6185             5717             5514             5994             6173             5705             5513
            6185             6186             5718             5717             6173             6174             5706             5705
            6186             6187             5719             5718             6174             6175             5707             5706
            6187             6188             5720             5719             6175             6176             5708             5707
            6188             6189             5721             5720             6176             6177             5709             5708
            6189             6190             5722             5721             6177             6178             5710             5709
            6190             6191             5723             5722             6178             6179             5711             5710
            6191             6192             5724             5723             6179             6180             5712             5711
            6192             6193             5725             5724             6180             6181             5713             5712
            6193             6194             5726             5725             6181             6182             5714             5713
            6194             6195             5727             5726             6182             6183             5715             5714
            6195             6196             5728             5727             6183             6184             5716             5715
            6196             2055             2030             5728             6184             2054             2029             5716
            2129             2283             6197             5996             2116             2271             6185             5995
            2283             2284             6198             6197             2271             2272             6186             6185
            2284             2285             6199             6198             2272             2273             6187             6186
            2285             2286             6200             6199             2273             2274             6188             6187
            2286             2287             6201             6200             2274             2275             6189             6188
            2287             2288             6202             6201             2275             2276             6190             6189
            2288             2289             6203             6202             2276             2277             6191             6190
            2289             2290             6204             6203             2277             2278             6192             6191
            2290             2291             6205             6204             2278             2279             6193             6192
            2291             2292             6206             6205             2279             2280             6194             6193
            2292             2293             6207             6206             2280             2281             6195             6194
            2293             2294             6208             6207             2281             2282             6196             6195
            2294              247             2056             6208             2282              246             2055             6196
            5996             6197             5729             5515             5995             6185             5717             5514
            6197             6198             5730             5729             6185             6186             5718             5717
            6198             6199             5731             5730             6186             6187             5719             5718
            6199             6200             5732             5731             6187             6188             5720             5719
            6200             6201             5733             5732             6188             6189             5721             5720
            6201             6202             5734             5733             6189             6190             5722             5721
            6202             6203             5735             5734             6190             6191             5723             5722
            6203             6204             5736             5735             6191             6192             5724             5723
            6204             6205             5737             5736             6192             6193             5725             5724
            6205             6206             5738             5737             6193             6194             5726             5725
            6206             6207             5739             5738             6194             6195             5727             5726
            6207             6208             5740             5739             6195             6196             5728             5727
            6208             2056             2031             5740             6196             2055             2030             5728
            2142             2295             6209             5997             2129             2283             6197             5996
            2295             2296             6210             6209             2283             2284             6198             6197
            2296             2297             6211             6210             2284             2285             6199             6198
            2297             2298             6212             6211             2285             2286             6200             6199
            2298             2299             6213             6212             2286             2287             6201             6200
            2299             2300             6214             6213             2287             2288             6202             6201
            2300             2301             6215             6214             2288             2289             6203             6202
            2301             2302             6216             6215             2289             2290             6204             6203
            2302             2303             6217             6216             2290             2291             6205             6204
            2303             2304             6218             6217             2291             2292             6206             6205
            2304             2305             6219             6218             2292             2293             6207             6206
            2305             2306             6220             6219             2293             2294             6208             6207
            2306              248             2057             6220             2294              247             2056             6208
            5997             6209             5741             5516             5996             6197             5729             5515
            6209             6210             5742             5741             6197             6198             5730             5729
            6210             6211             5743             5742             6198             6199             5731             5730
            6211             6212             5744             5743             6199             6200             5732             5731
            6212             6213             5745             5744             6200             6201             5733             5732
            6213             6214             5746             5745             6201             6202             5734             5733
            6214             6215             5747             5746             6202             6203             5735             5734
            6215             6216             5748             5747             6203             6204             5736             5735
            6216             6217             5749             5748             6204             6205             5737             5736
            6217             6218             5750             5749             6205             6206             5738             5737
            6218             6219             5751             5750             6206             6207             5739             5738
            6219             6220             5752             5751             6207             6208             5740             5739
            6220             2057             2032             5752             6208             2056             2031             5740
            2155             2307             6221             5998             2142             2295             6209             5997
            2307             2308             6222             6221             2295             2296             6210             6209
            2308             2309             6223             6222             2296             2297             6211             6210
            2309             2310             6224             6223             2297             2298             6212             6211
            2310             2311             6225             6224             2298             2299             6213             6212
            2311             2312             6226             6225             2299             2300             6214             6213
            2312             2313             6227             6226             2300             2301             6215             6214
            2313             2314             6228             6227             2301             2302             6216             6215
            2314             2315             6229             6228             2302             2303             6217             6216
            2315             2316             6230             6229             2303             2304             6218             6217
            2316             2317             6231             6230             2304             2305             6219             6218
            2317             2318             6232             6231             2305             2306             6220             6219
            2318              249             2058             6232             2306              248             2057             6220
            5998             6221             5753             5517             5997             6209             5741             5516
            6221             6222             5754             5753             6209             6210             5742             5741
            6222             6223             5755             5754             6210             6211             5743             5742
            6223             6224             5756             5755             6211             6212             5744             5743
            6224             6225             5757             5756             6212             6213             5745             5744
            6225             6226             5758             5757             6213             6214             5746             5745
            6226             6227             5759             5758             6214             6215             5747             5746
            6227             6228             5760             5759             6215             6216             5748             5747
            6228             6229             5761             5760             6216             6217             5749             5748
            6229             6230             5762             5761             6217             6218             5750             5749
            6230             6231             5763             5762             6218             6219             5751             5750
            6231             6232             5764             5763             6219             6220             5752             5751
            6232             2058             2033             5764             6220             2057             2032             5752
            2168             2319             6233             5999             2155             2307             6221             5998
            2319             2320             6234             6233             2307             2308             6222             6221
            2320             2321             6235             6234             2308             2309             6223             6222
            2321             2322             6236             6235             2309             2310             6224             6223
            2322             2323             6237             6236             2310             2311             6225             6224
            2323             2324             6238             6237             2311             2312             6226             6225
            2324             2325             6239             6238             2312             2313             6227             6226
            2325             2326             6240             6239             2313             2314             6228             6227
            2326             2327             6241             6240             2314             2315             6229             6228
            2327             2328             6242             6241             2315             2316             6230             6229
            2328             2329             6243             6242             2316             2317             6231             6230
            2329             2330             6244             6243             2317             2318             6232             6231
            2330              250             2059             6244             2318              249             2058             6232
            5999             6233             5765             5518             5998             6221             5753             5517
            6233             6234             5766             5765             6221             6222             5754             5753
            6234             6235             5767             5766             6222             6223             5755             5754
            6235             6236             5768             5767             6223             6224             5756             5755
            6236             6237             5769             5768             6224             6225             5757             5756
            6237             6238             5770             5769             6225             6226             5758             5757
            6238             6239             5771             5770             6226             6227             5759             5758
            6239             6240             5772             5771             6227             6228             5760             5759
            6240             6241             5773             5772             6228             6229             5761             5760
            6241             6242             5774             5773             6229             6230             5762             5761
            6242             6243             5775             5774             6230             6231             5763             5762
            6243             6244             5776             5775             6231             6232             5764             5763
            6244             2059             2034             5776             6232             2058             2033             5764
            2181             2331             6245             6000             2168             2319             6233             5999
            2331             2332             6246             6245             2319             2320             6234             6233
            2332             2333             6247             6246             2320             2321             6235             6234
            2333             2334             6248             6247             2321             2322             6236             6235
            2334             2335             6249             6248             2322             2323             6237             6236
            2335             2336             6250             6249             2323             2324             6238             6237
            2336             2337             6251             6250             2324             2325             6239             6238
            2337             2338             6252             6251             2325             2326             6240             6239
            2338             2339             6253             6252             2326             2327             6241             6240
            2339             2340             6254             6253             2327             2328             6242             6241
            2340             2341             6255             6254             2328             2329             6243             6242
            2341             2342             6256             6255             2329             2330             6244             6243
            2342              251             2060             6256             2330              250             2059             6244
            6000             6245             5777             5519             5999             6233             5765             5518
            6245             6246             5778             5777             6233             6234             5766             5765
            6246             6247             5779             5778             6234             6235             5767             5766
            6247             6248             5780             5779             6235             6236             5768             5767
            6248             6249             5781             5780             6236             6237             5769             5768
            6249             6250             5782             5781             6237             6238             5770             5769
            6250             6251             5783             5782             6238             6239             5771             5770
            6251             6252             5784             5783             6239             6240             5772             5771
            6252             6253             5785             5784             6240             6241             5773             5772
            6253             6254             5786             5785             6241             6242             5774             5773
            6254             6255             5787             5786             6242             6243             5775             5774
            6255             6256             5788             5787             6243             6244             5776             5775
            6256             2060             2035             5788             6244             2059             2034             5776
            2194             2343             6257             6001             2181             2331             6245             6000
            2343             2344             6258             6257             2331             2332             6246             6245
            2344             2345             6259             6258             2332             2333             6247             6246
            2345             2346             6260             6259             2333             2334             6248             6247
            2346             2347             6261             6260             2334             2335             6249             6248
            2347             2348             6262             6261             2335             2336             6250             6249
            2348             2349             6263             6262             2336             2337             6251             6250
            2349             2350             6264             6263             2337             2338             6252             6251
            2350             2351             6265             6264             2338             2339             6253             6252
            2351             2352             6266             6265             2339             2340             6254             6253
            2352             2353             6267             6266             2340             2341             6255             6254
            2353             2354             6268             6267             2341             2342             6256             6255
            2354              252             2061             6268             2342              251             2060             6256
            6001             6257             5789             5520             6000             6245             5777             5519
            6257             6258             5790             5789             6245             6246             5778             5777
            6258             6259             5791             5790             6246             6247             5779             5778
            6259             6260             5792             5791             6247             6248             5780             5779
            6260             6261             5793             5792             6248             6249             5781             5780
            6261             6262             5794             5793             6249             6250             5782             5781
            6262             6263             5795             5794             6250             6251             5783             5782
            6263             6264             5796             5795             6251             6252             5784             5783
            6264             6265             5797             5796             6252             6253             5785             5784
            6265             6266             5798             5797             6253             6254             5786             5785
            6266             6267             5799             5798             6254             6255             5787             5786
            6267             6268             5800             5799             6255             6256             5788             5787
            6268             2061             2036             5800             6256             2060             2035             5788
            2207             2355             6269             6002             2194             2343             6257             6001
            2355             2356             6270             6269             2343             2344             6258             6257
            2356             2357             6271             6270             2344             2345             6259             6258
            2357             2358             6272             6271             2345             2346             6260             6259
            2358             2359             6273             6272             2346             2347             6261             6260
            2359             2360             6274             6273             2347             2348             6262             6261
            2360             2361             6275             6274             2348             2349             6263             6262
            2361             2362             6276             6275             2349             2350             6264             6263
            2362             2363             6277             6276             2350             2351             6265             6264
            2363             2364             6278             6277             2351             2352             6266             6265
            2364             2365             6279             6278             2352             2353             6267             6266
            2365             2366             6280             6279             2353             2354             6268             6267
            2366              253             2062             6280             2354              252             2061             6268
            6002             6269             5801             5521             6001             6257             5789             5520
            6269             6270             5802             5801             6257             6258             5790             5789
            6270             6271             5803             5802             6258             6259             5791             5790
            6271             6272             5804             5803             6259             6260             5792             5791
            6272             6273             5805             5804             6260             6261             5793             5792
            6273             6274             5806             5805             6261             6262             5794             5793
            6274             6275             5807             5806             6262             6263             5795             5794
            6275             6276             5808             5807             6263             6264             5796             5795
            6276             6277             5809             5808             6264             6265             5797             5796
            6277             6278             5810             5809             6265             6266             5798             5797
            6278             6279             5811             5810             6266             6267             5799             5798
            6279             6280             5812             5811             6267             6268             5800             5799
            6280             2062             2037             5812             6268             2061             2036             5800
            2220             2367             6281             6003             2207             2355             6269             6002
            2367             2368             6282             6281             2355             2356             6270             6269
            2368             2369             6283             6282             2356             2357             6271             6270
            2369             2370             6284             6283             2357             2358             6272             6271
            2370             2371             6285             6284             2358             2359             6273             6272
            2371             2372             6286             6285             2359             2360             6274             6273
            2372             2373             6287             6286             2360             2361             6275             6274
            2373             2374             6288             6287             2361             2362             6276             6275
            2374             2375             6289             6288             2362             2363             6277             6276
            2375             2376             6290             6289             2363             2364             6278             6277
            2376             2377             6291             6290             2364             2365             6279             6278
            2377             2378             6292             6291             2365             2366             6280             6279
            2378              254             2063             6292             2366              253             2062             6280
            6003             6281             5813             5522             6002             6269             5801             5521
            6281             6282             5814             5813             6269             6270             5802             5801
            6282             6283             5815             5814             6270             6271             5803             5802
            6283             6284             5816             5815             6271             6272             5804             5803
            6284             6285             5817             5816             6272             6273             5805             5804
            6285             6286             5818             5817             6273             6274             5806             5805
            6286             6287             5819             5818             6274             6275             5807             5806
            6287             6288             5820             5819             6275             6276             5808             5807
            6288             6289             5821             5820             6276             6277             5809             5808
            6289             6290             5822             5821             6277             6278             5810             5809
            6290             6291             5823             5822             6278             6279             5811             5810
            6291             6292             5824             5823             6279             6280             5812             5811
            6292             2063             2038             5824             6280             2062             2037             5812
            2233             2379             6293             6004             2220             2367             6281             6003
            2379             2380             6294             6293             2367             2368             6282             6281
            2380             2381             6295             6294             2368             2369             6283             6282
            2381             2382             6296             6295             2369             2370             6284             6283
            2382             2383             6297             6296             2370             2371             6285             6284
            2383             2384             6298             6297             2371             2372             6286             6285
            2384             2385             6299             6298             2372             2373             6287             6286
            2385             2386             6300             6299             2373             2374             6288             6287
            2386             2387             6301             6300             2374             2375             6289             6288
            2387             2388             6302             6301             2375             2376             6290             6289
            2388             2389             6303             6302             2376             2377             6291             6290
            2389             2390             6304             6303             2377             2378             6292             6291
            2390              255             2064             6304             2378              254             2063             6292
            6004             6293             5825             5523             6003             6281             5813             5522
            6293             6294             5826             5825             6281             6282             5814             5813
            6294             6295             5827             5826             6282             6283             5815             5814
            6295             6296             5828             5827             6283             6284             5816             5815
            6296             6297             5829             5828             6284             6285             5817             5816
            6297             6298             5830             5829             6285             6286             5818             5817
            6298             6299             5831             5830             6286             6287             5819             5818
            6299             6300             5832             5831             6287             6288             5820             5819
            6300             6301             5833             5832             6288             6289             5821             5820
            6301             6302             5834             5833             6289             6290             5822             5821
            6302             6303             5835             5834             6290             6291             5823             5822
            6303             6304             5836             5835             6291             6292             5824             5823
            6304             2064             2039             5836             6292             2063             2038             5824
            2246             2391             6005             5548             2233             2379             6293             6004
            2391             2392             6006             6005             2379             2380             6294             6293
            2392             2393             6007             6006             2380             2381             6295             6294
            2393             2394             6008             6007             2381             2382             6296             6295
            2394             2395             6009             6008             2382             2383             6297             6296
            2395             2396             6010             6009             2383             2384             6298             6297
            2396             2397             6011             6010             2384             2385             6299             6298
            2397             2398             6012             6011             2385             2386             6300             6299
            2398             2399             6013             6012             2386             2387             6301             6300
            2399             2400             6014             6013             2387             2388             6302             6301
            2400             2401             6015             6014             2388             2389             6303             6302
            2401             2402             6016             6015             2389             2390             6304             6303
            2402              256             2065             6016             2390              255             2064             6304
            5548             6005             5536             5511             6004             6293             5825             5523
            6005             6006             5537             5536             6293             6294             5826             5825
            6006             6007             5538             5537             6294             6295             5827             5826
            6007             6008             5539             5538             6295             6296             5828             5827
            6008             6009             5540             5539             6296             6297             5829             5828
            6009             6010             5541             5540             6297             6298             5830             5829
            6010             6011             5542             5541             6298             6299             5831             5830
            6011             6012             5543             5542             6299             6300             5832             5831
            6012             6013             5544             5543             6300             6301             5833             5832
            6013             6014             5545             5544             6301             6302             5834             5833
            6014             6015             5546             5545             6302             6303             5835             5834
            6015             6016             5547             5546             6303             6304             5836             5835
            6016             2065             2040             5547             6304             2064             2039             5836
            2052             2066             6305             5848               90               91             1028             1014
            2066              268             2403             6305               91                6              142             1028
            5848             6305             6306             5860             1014             1028             1029             1013
            6305             2403             2404             6306             1028              142              143             1029
            5860             6306             6307             5872             1013             1029             1030             1012
            6306             2404             2405             6307             1029              143              144             1030
            5872             6307             6308             5884             1012             1030             1031             1011
            6307             2405             2406             6308             1030              144              145             1031
            5884             6308             6309             5896             1011             1031             1032             1010
            6308             2406             2407             6309             1031              145              146             1032
            5896             6309             6310             5908             1010             1032             1033             1009
            6309             2407             2408             6310             1032              146              147             1033
            5908             6310             6311             5920             1009             1033             1034             1008
            6310             2408             2409             6311             1033              147              148             1034
            5920             6311             6312             5932             1008             1034             1035             1007
            6311             2409             2410             6312             1034              148              149             1035
            5932             6312             6313             5944             1007             1035             1036             1006
            6312             2410             2411             6313             1035              149              150             1036
            5944             6313             6314             5956             1006             1036             1037             1005
            6313             2411             2412             6314             1036              150              151             1037
            5956             6314             6315             5968             1005             1037             1038             1004
            6314             2412             2413             6315             1037              151              152             1038
            5968             6315             6316             5980             1004             1038             1039             1003
            6315             2413             2414             6316             1038              152              153             1039
            5980             6316             5981             5535             1003             1039             1027             1002
            6316             2414             2234             5981             1039              153              154             1027
            2051             2067             6317             5847             2052             2066             6305             5848
            2067              267             2415             6317             2066              268             2403             6305
            5847             6317             6318             5859             5848             6305             6306             5860
            6317             2415             2416             6318             6305             2403             2404             6306
            5859             6318             6319             5871             5860             6306             6307             5872
            6318             2416             2417             6319             6306             2404             2405             6307
            5871             6319             6320             5883             5872             6307             6308             5884
            6319             2417             2418             6320             6307             2405             2406             6308
            5883             6320             6321             5895             5884             6308             6309             5896
            6320             2418             2419             6321             6308             2406             2407             6309
            5895             6321             6322             5907             5896             6309             6310             5908
            6321             2419             2420             6322             6309             2407             2408             6310
            5907             6322             6323             5919             5908             6310             6311             5920
            6322             2420             2421             6323             6310             2408             2409             6311
            5919             6323             6324             5931             5920             6311             6312             5932
            6323             2421             2422             6324             6311             2409             2410             6312
            5931             6324             6325             5943             5932             6312             6313             5944
            6324             2422             2423             6325             6312             2410             2411             6313
            5943             6325             6326             5955             5944             6313             6314             5956
            6325             2423             2424             6326             6313             2411             2412             6314
            5955             6326             6327             5967             5956             6314             6315             5968
            6326             2424             2425             6327             6314             2412             2413             6315
            5967             6327             6328             5979             5968             6315             6316             5980
            6327             2425             2426             6328             6315             2413             2414             6316
            5979             6328             5982             5534             5980             6316             5981             5535
            6328             2426             2235             5982             6316             2414             2234             5981
            2050             2068             6329             5846             2051             2067             6317             5847
            2068              266             2427             6329             2067              267             2415             6317
            5846             6329             6330             5858             5847             6317             6318             5859
            6329             2427             2428             6330             6317             2415             2416             6318
            5858             6330             6331             5870             5859             6318             6319             5871
            6330             2428             2429             6331             6318             2416             2417             6319
            5870             6331             6332             5882             5871             6319             6320             5883
            6331             2429             2430             6332             6319             2417             2418             6320
            5882             6332             6333             5894             5883             6320             6321             5895
            6332             2430             2431             6333             6320             2418             2419             6321
            5894             6333             6334             5906             5895             6321             6322             5907
            6333             2431             2432             6334             6321             2419             2420             6322
            5906             6334             6335             5918             5907             6322             6323             5919
            6334             2432             2433             6335             6322             2420             2421             6323
            5918             6335             6336             5930             5919             6323             6324             5931
            6335             2433             2434             6336             6323             2421             2422             6324
            5930             6336             6337             5942             5931             6324             6325             5943
            6336             2434             2435             6337             6324             2422             2423             6325
            5942             6337             6338             5954             5943             6325             6326             5955
            6337             2435             2436             6338             6325             2423             2424             6326
            5954             6338             6339             5966             5955             6326             6327             5967
            6338             2436             2437             6339             6326             2424             2425             6327
            5966             6339             6340             5978             5967             6327             6328             5979
            6339             2437             2438             6340             6327             2425             2426             6328
            5978             6340             5983             5533             5979             6328             5982             5534
            6340             2438             2236             5983             6328             2426             2235             5982
            2049             2069             6341             5845             2050             2068             6329             5846
            2069              265             2439             6341             2068              266             2427             6329
            5845             6341             6342             5857             5846             6329             6330             5858
            6341             2439             2440             6342             6329             2427             2428             6330
            5857             6342             6343             5869             5858             6330             6331             5870
            6342             2440             2441             6343             6330             2428             2429             6331
            5869             6343             6344             5881             5870             6331             6332             5882
            6343             2441             2442             6344             6331             2429             2430             6332
            5881             6344             6345             5893             5882             6332             6333             5894
            6344             2442             2443             6345             6332             2430             2431             6333
            5893             6345             6346             5905             5894             6333             6334             5906
            6345             2443             2444             6346             6333             2431             2432             6334
            5905             6346             6347             5917             5906             6334             6335             5918
            6346             2444             2445             6347             6334             2432             2433             6335
            5917             6347             6348             5929             5918             6335             6336             5930
            6347             2445             2446             6348             6335             2433             2434             6336
            5929             6348             6349             5941             5930             6336             6337             5942
            6348             2446             2447             6349             6336             2434             2435             6337
            5941             6349             6350             5953             5942             6337             6338             5954
            6349             2447             2448             6350             6337             2435             2436             6338
            5953             6350             6351             5965             5954             6338             6339             5966
            6350             2448             2449             6351             6338             2436             2437             6339
            5965             6351             6352             5977             5966             6339             6340             5978
            6351             2449             2450             6352             6339             2437             2438             6340
            5977             6352             5984             5532             5978             6340             5983             5533
            6352             2450             2237             5984             6340             2438             2236             5983
            2048             2070             6353             5844             2049             2069             6341             5845
            2070              264             2451             6353             2069              265             2439             6341
            5844             6353             6354             5856             5845             6341             6342             5857
            6353             2451             2452             6354             6341             2439             2440             6342
            5856             6354             6355             5868             5857             6342             6343             5869
            6354             2452             2453             6355             6342             2440             2441             6343
            5868             6355             6356             5880             5869             6343             6344             5881
            6355             2453             2454             6356             6343             2441             2442             6344
            5880             6356             6357             5892             5881             6344             6345             5893
            6356             2454             2455             6357             6344             2442             2443             6345
            5892             6357             6358             5904             5893             6345             6346             5905
            6357             2455             2456             6358             6345             2443             2444             6346
            5904             6358             6359             5916             5905             6346             6347             5917
            6358             2456             2457             6359             6346             2444             2445             6347
            5916             6359             6360             5928             5917             6347             6348             5929
            6359             2457             2458             6360             6347             2445             2446             6348
            5928             6360             6361             5940             5929             6348             6349             5941
            6360             2458             2459             6361             6348             2446             2447             6349
            5940             6361             6362             5952             5941             6349             6350             5953
            6361             2459             2460             6362             6349             2447             2448             6350
            5952             6362             6363             5964             5953             6350             6351             5965
            6362             2460             2461             6363             6350             2448             2449             6351
            5964             6363             6364             5976             5965             6351             6352             5977
            6363             2461             2462             6364             6351             2449             2450             6352
            5976             6364             5985             5531             5977             6352             5984             5532
            6364             2462             2238             5985             6352             2450             2237             5984
            2047             2071             6365             5843             2048             2070             6353             5844
            2071              263             2463             6365             2070              264             2451             6353
            5843             6365             6366             5855             5844             6353             6354             5856
            6365             2463             2464             6366             6353             2451             2452             6354
            5855             6366             6367             5867             5856             6354             6355             5868
            6366             2464             2465             6367             6354             2452             2453             6355
            5867             6367             6368             5879             5868             6355             6356             5880
            6367             2465             2466             6368             6355             2453             2454             6356
            5879             6368             6369             5891             5880             6356             6357             5892
            6368             2466             2467             6369             6356             2454             2455             6357
            5891             6369             6370             5903             5892             6357             6358             5904
            6369             2467             2468             6370             6357             2455             2456             6358
            5903             6370             6371             5915             5904             6358             6359             5916
            6370             2468             2469             6371             6358             2456             2457             6359
            5915             6371             6372             5927             5916             6359             6360             5928
            6371             2469             2470             6372             6359             2457             2458             6360
            5927             6372             6373             5939             5928             6360             6361             5940
            6372             2470             2471             6373             6360             2458             2459             6361
            5939             6373             6374             5951             5940             6361             6362             5952
            6373             2471             2472             6374             6361             2459             2460             6362
            5951             6374             6375             5963             5952             6362             6363             5964
            6374             2472             2473             6375             6362             2460             2461             6363
            5963             6375             6376             5975             5964             6363             6364             5976
            6375             2473             2474             6376             6363             2461             2462             6364
            5975             6376             5986             5530             5976             6364             5985             5531
            6376             2474             2239             5986             6364             2462             2238             5985
            2046             2072             6377             5842             2047             2071             6365             5843
            2072              262             2475             6377             2071              263             2463             6365
            5842             6377             6378             5854             5843             6365             6366             5855
            6377             2475             2476             6378             6365             2463             2464             6366
            5854             6378             6379             5866             5855             6366             6367             5867
            6378             2476             2477             6379             6366             2464             2465             6367
            5866             6379             6380             5878             5867             6367             6368             5879
            6379             2477             2478             6380             6367             2465             2466             6368
            5878             6380             6381             5890             5879             6368             6369             5891
            6380             2478             2479             6381             6368             2466             2467             6369
            5890             6381             6382             5902             5891             6369             6370             5903
            6381             2479             2480             6382             6369             2467             2468             6370
            5902             6382             6383             5914             5903             6370             6371             5915
            6382             2480             2481             6383             6370             2468             2469             6371
            5914             6383             6384             5926             5915             6371             6372             5927
            6383             2481             2482             6384             6371             2469             2470             6372
            5926             6384             6385             5938             5927             6372             6373             5939
            6384             2482             2483             6385             6372             2470             2471             6373
            5938             6385             6386             5950             5939             6373             6374             5951
            6385             2483             2484             6386             6373             2471             2472             6374
            5950             6386             6387             5962             5951             6374             6375             5963
            6386             2484             2485             6387             6374             2472             2473             6375
            5962             6387             6388             5974             5963             6375             6376             5975
            6387             2485             2486             6388             6375             2473             2474             6376
            5974             6388             5987             5529             5975             6376             5986             5530
            6388             2486             2240             5987             6376             2474             2239             5986
            2045             2073             6389             5841             2046             2072             6377             5842
            2073              261             2487             6389             2072              262             2475             6377
            5841             6389             6390             5853             5842             6377             6378             5854
            6389             2487             2488             6390             6377             2475             2476             6378
            5853             6390             6391             5865             5854             6378             6379             5866
            6390             2488             2489             6391             6378             2476             2477             6379
            5865             6391             6392             5877             5866             6379             6380             5878
            6391             2489             2490             6392             6379             2477             2478             6380
            5877             6392             6393             5889             5878             6380             6381             5890
            6392             2490             2491             6393             6380             2478             2479             6381
            5889             6393             6394             5901             5890             6381             6382             5902
            6393             2491             2492             6394             6381             2479             2480             6382
            5901             6394             6395             5913             5902             6382             6383             5914
            6394             2492             2493             6395             6382             2480             2481             6383
            5913             6395             6396             5925             5914             6383             6384             5926
            6395             2493             2494             6396             6383             2481             2482             6384
            5925             6396             6397             5937             5926             6384             6385             5938
            6396             2494             2495             6397             6384             2482             2483             6385
            5937             6397             6398             5949             5938             6385             6386             5950
            6397             2495             2496             6398             6385             2483             2484             6386
            5949             6398             6399             5961             5950             6386             6387             5962
            6398             2496             2497             6399             6386             2484             2485             6387
            5961             6399             6400             5973             5962             6387             6388             5974
            6399             2497             2498             6400             6387             2485             2486             6388
            5973             6400             5988             5528             5974             6388             5987             5529
            6400             2498             2241             5988             6388             2486             2240             5987
            2044             2074             6401             5840             2045             2073             6389             5841
            2074              260             2499             6401             2073              261             2487             6389
            5840             6401             6402             5852             5841             6389             6390             5853
            6401             2499             2500             6402             6389             2487             2488             6390
            5852             6402             6403             5864             5853             6390             6391             5865
            6402             2500             2501             6403             6390             2488             2489             6391
            5864             6403             6404             5876             5865             6391             6392             5877
            6403             2501             2502             6404             6391             2489             2490             6392
            5876             6404             6405             5888             5877             6392             6393             5889
            6404             2502             2503             6405             6392             2490             2491             6393
            5888             6405             6406             5900             5889             6393             6394             5901
            6405             2503             2504             6406             6393             2491             2492             6394
            5900             6406             6407             5912             5901             6394             6395             5913
            6406             2504             2505             6407             6394             2492             2493             6395
            5912             6407             6408             5924             5913             6395             6396             5925
            6407             2505             2506             6408             6395             2493             2494             6396
            5924             6408             6409             5936             5925             6396             6397             5937
            6408             2506             2507             6409             6396             2494             2495             6397
            5936             6409             6410             5948             5937             6397             6398             5949
            6409             2507             2508             6410             6397             2495             2496             6398
            5948             6410             6411             5960             5949             6398             6399             5961
            6410             2508             2509             6411             6398             2496             2497             6399
            5960             6411             6412             5972             5961             6399             6400             5973
            6411             2509             2510             6412             6399             2497             2498             6400
            5972             6412             5989             5527             5973             6400             5988             5528
            6412             2510             2242             5989             6400             2498             2241             5988
            2043             2075             6413             5839             2044             2074             6401             5840
            2075              259             2511             6413             2074              260             2499             6401
            5839             6413             6414             5851             5840             6401             6402             5852
            6413             2511             2512             6414             6401             2499             2500             6402
            5851             6414             6415             5863             5852             6402             6403             5864
            6414             2512             2513             6415             6402             2500             2501             6403
            5863             6415             6416             5875             5864             6403             6404             5876
            6415             2513             2514             6416             6403             2501             2502             6404
            5875             6416             6417             5887             5876             6404             6405             5888
            6416             2514             2515             6417             6404             2502             2503             6405
            5887             6417             6418             5899             5888             6405             6406             5900
            6417             2515             2516             6418             6405             2503             2504             6406
            5899             6418             6419             5911             5900             6406             6407             5912
            6418             2516             2517             6419             6406             2504             2505             6407
            5911             6419             6420             5923             5912             6407             6408             5924
            6419             2517             2518             6420             6407             2505             2506             6408
            5923             6420             6421             5935             5924             6408             6409             5936
            6420             2518             2519             6421             6408             2506             2507             6409
            5935             6421             6422             5947             5936             6409             6410             5948
            6421             2519             2520             6422             6409             2507             2508             6410
            5947             6422             6423             5959             5948             6410             6411             5960
            6422             2520             2521             6423             6410             2508             2509             6411
            5959             6423             6424             5971             5960             6411             6412             5972
            6423             2521             2522             6424             6411             2509             2510             6412
            5971             6424             5990             5526             5972             6412             5989             5527
            6424             2522             2243             5990             6412             2510             2242             5989
            2042             2076             6425             5838             2043             2075             6413             5839
            2076              258             2523             6425             2075              259             2511             6413
            5838             6425             6426             5850             5839             6413             6414             5851
            6425             2523             2524             6426             6413             2511             2512             6414
            5850             6426             6427             5862             5851             6414             6415             5863
            6426             2524             2525             6427             6414             2512             2513             6415
            5862             6427             6428             5874             5863             6415             6416             5875
            6427             2525             2526             6428             6415             2513             2514             6416
            5874             6428             6429             5886             5875             6416             6417             5887
            6428             2526             2527             6429             6416             2514             2515             6417
            5886             6429             6430             5898             5887             6417             6418             5899
            6429             2527             2528             6430             6417             2515             2516             6418
            5898             6430             6431             5910             5899             6418             6419             5911
            6430             2528             2529             6431             6418             2516             2517             6419
            5910             6431             6432             5922             5911             6419             6420             5923
            6431             2529             2530             6432             6419             2517             2518             6420
            5922             6432             6433             5934             5923             6420             6421             5935
            6432             2530             2531             6433             6420             2518             2519             6421
            5934             6433             6434             5946             5935             6421             6422             5947
            6433             2531             2532             6434             6421             2519             2520             6422
            5946             6434             6435             5958             5947             6422             6423             5959
            6434             2532             2533             6435             6422             2520             2521             6423
            5958             6435             6436             5970             5959             6423             6424             5971
            6435             2533             2534             6436             6423             2521             2522             6424
            5970             6436             5991             5525             5971             6424             5990             5526
            6436             2534             2244             5991             6424             2522             2243             5990
            2041             2077             6437             5837             2042             2076             6425             5838
            2077              257             2535             6437             2076              258             2523             6425
            5837             6437             6438             5849             5838             6425             6426             5850
            6437             2535             2536             6438             6425             2523             2524             6426
            5849             6438             6439             5861             5850             6426             6427             5862
            6438             2536             2537             6439             6426             2524             2525             6427
            5861             6439             6440             5873             5862             6427             6428             5874
            6439             2537             2538             6440             6427             2525             2526             6428
            5873             6440             6441             5885             5874             6428             6429             5886
            6440             2538             2539             6441             6428             2526             2527             6429
            5885             6441             6442             5897             5886             6429             6430             5898
            6441             2539             2540             6442             6429             2527             2528             6430
            5897             6442             6443             5909             5898             6430             6431             5910
            6442             2540             2541             6443             6430             2528             2529             6431
            5909             6443             6444             5921             5910             6431             6432             5922
            6443             2541             2542             6444             6431             2529             2530             6432
            5921             6444             6445             5933             5922             6432             6433             5934
            6444             2542             2543             6445             6432             2530             2531             6433
            5933             6445             6446             5945             5934             6433             6434             5946
            6445             2543             2544             6446             6433             2531             2532             6434
            5945             6446             6447             5957             5946             6434             6435             5958
            6446             2544             2545             6447             6434             2532             2533             6435
            5957             6447             6448             5969             5958             6435             6436             5970
            6447             2545             2546             6448             6435             2533             2534             6436
            5969             6448             5992             5524             5970             6436             5991             5525
            6448             2546             2245             5992             6436             2534             2244             5991
            2040             2065             6016             5547             2041             2077             6437             5837
            2065              256             2402             6016             2077              257             2535             6437
            5547             6016             6015             5546             5837             6437             6438             5849
            6016             2402             2401             6015             6437             2535             2536             6438
            5546             6015             6014             5545             5849             6438             6439             5861
            6015             2401             2400             6014             6438             2536             2537             6439
            5545             6014             6013             5544             5861             6439             6440             5873
            6014             2400             2399             6013             6439             2537             2538             6440
            5544             6013             6012             5543             5873             6440             6441             5885
            6013             2399             2398             6012             6440             2538             2539             6441
            5543             6012             6011             5542             5885             6441             6442             5897
            6012             2398             2397             6011             6441             2539             2540             6442
            5542             6011             6010             5541             5897             6442             6443             5909
            6011             2397             2396             6010             6442             2540             2541             6443
            5541             6010             6009             5540             5909             6443             6444             5921
            6010             2396             2395             6009             6443             2541             2542             6444
            5540             6009             6008             5539             5921             6444             6445             5933
            6009             2395             2394             6008             6444             2542             2543             6445
            5539             6008             6007             5538             5933             6445             6446             5945
            6008             2394             2393             6007             6445             2543             2544             6446
            5538             6007             6006             5537             5945             6446             6447             5957
            6007             2393             2392             6006             6446             2544             2545             6447
            5537             6006             6005             5536             5957             6447             6448             5969
            6006             2392             2391             6005             6447             2545             2546             6448
            5536             6005             5548             5511             5969             6448             5992             5524
            6005             2391             2246             5548             6448             2546             2245             5992
            3016             3017             6487             6473              281              282             2548             2547
            3017             3018             6488             6487              282              283             2549             2548
            3018             3019             6489             6488              283              284             2550             2549
            3019             3020             6490             6489              284              285             2551             2550
            3020             3021             6491             6490              285              286             2552             2551
            3021             3022             6492             6491              286              287             2553             2552
            3022             3023             6493             6492              287              288             2554             2553
            3023             3024             6494             6493              288              289             2555             2554
            3024             3025             6495             6494              289              290             2556             2555
            3025             3026             6496             6495              290              291             2557             2556
            3026             3027             6497             6496              291              292             2558             2557
            3027             3028             6498             6497              292              293             2559             2558
            3028              217             2002             6498              293                7              191             2559
            6473             6487             6499             6472             2547             2548             2561             2560
            6487             6488             6500             6499             2548             2549             2562             2561
            6488             6489             6501             6500             2549             2550             2563             2562
            6489             6490             6502             6501             2550             2551             2564             2563
            6490             6491             6503             6502             2551             2552             2565             2564
            6491             6492             6504             6503             2552             2553             2566             2565
            6492             6493             6505             6504             2553             2554             2567             2566
            6493             6494             6506             6505             2554             2555             2568             2567
            6494             6495             6507             6506             2555             2556             2569             2568
            6495             6496             6508             6507             2556             2557             2570             2569
            6496             6497             6509             6508             2557             2558             2571             2570
            6497             6498             6510             6509             2558             2559             2572             2571
            6498             2002             2001             6510             2559              191              190             2572
            6472             6499             6511             6471             2560             2561             2574             2573
            6499             6500             6512             6511             2561             2562             2575             2574
            6500             6501             6513             6512             2562             2563             2576             2575
            6501             6502             6514             6513             2563             2564             2577             2576
            6502             6503             6515             6514             2564             2565             2578             2577
            6503             6504             6516             6515             2565             2566             2579             2578
            6504             6505             6517             6516             2566             2567             2580             2579
            6505             6506             6518             6517             2567             2568             2581             2580
            6506             6507             6519             6518             2568             2569             2582             2581
            6507             6508             6520             6519             2569             2570             2583             2582
            6508             6509             6521             6520             2570             2571             2584             2583
            6509             6510             6522             6521             2571             2572             2585             2584
            6510             2001             2000             6522             2572              190              189             2585
            6471             6511             6523             6470             2573             2574             2587             2586
            6511             6512             6524             6523             2574             2575             2588             2587
            6512             6513             6525             6524             2575             2576             2589             2588
            6513             6514             6526             6525             2576             2577             2590             2589
            6514             6515             6527             6526             2577             2578             2591             2590
            6515             6516             6528             6527             2578             2579             2592             2591
            6516             6517             6529             6528             2579             2580             2593             2592
            6517             6518             6530             6529             2580             2581             2594             2593
            6518             6519             6531             6530             2581             2582             2595             2594
            6519             6520             6532             6531             2582             2583             2596             2595
            6520             6521             6533             6532             2583             2584             2597             2596
            6521             6522             6534             6533             2584             2585             2598             2597
            6522             2000             1999             6534             2585              189              188             2598
            6470             6523             6535             6469             2586             2587             2600             2599
            6523             6524             6536             6535             2587             2588             2601             2600
            6524             6525             6537             6536             2588             2589             2602             2601
            6525             6526             6538             6537             2589             2590             2603             2602
            6526             6527             6539             6538             2590             2591             2604             2603
            6527             6528             6540             6539             2591             2592             2605             2604
            6528             6529             6541             6540             2592             2593             2606             2605
            6529             6530             6542             6541             2593             2594             2607             2606
            6530             6531             6543             6542             2594             2595             2608             2607
            6531             6532             6544             6543             2595             2596             2609             2608
            6532             6533             6545             6544             2596             2597             2610             2609
            6533             6534             6546             6545             2597             2598             2611             2610
            6534             1999             1998             6546             2598              188              187             2611
            6469             6535             6547             6468             2599             2600             2613             2612
            6535             6536             6548             6547             2600             2601             2614             2613
            6536             6537             6549             6548             2601             2602             2615             2614
            6537             6538             6550             6549             2602             2603             2616             2615
            6538             6539             6551             6550             2603             2604             2617             2616
            6539             6540             6552             6551             2604             2605             2618             2617
            6540             6541             6553             6552             2605             2606             2619             2618
            6541             6542             6554             6553             2606             2607             2620             2619
            6542             6543             6555             6554             2607             2608             2621             2620
            6543             6544             6556             6555             2608             2609             2622             2621
            6544             6545             6557             6556             2609             2610             2623             2622
            6545             6546             6558             6557             2610             2611             2624             2623
            6546             1998             1997             6558             2611              187              186             2624
            6468             6547             6559             6467             2612             2613             2626             2625
            6547             6548             6560             6559             2613             2614             2627             2626
            6548             6549             6561             6560             2614             2615             2628             2627
            6549             6550             6562             6561             2615             2616             2629             2628
            6550             6551             6563             6562             2616             2617             2630             2629
            6551             6552             6564             6563             2617             2618             2631             2630
            6552             6553             6565             6564             2618             2619             2632             2631
            6553             6554             6566             6565             2619             2620             2633             2632
            6554             6555             6567             6566             2620             2621             2634             2633
            6555             6556             6568             6567             2621             2622             2635             2634
            6556             6557             6569             6568             2622             2623             2636             2635
            6557             6558             6570             6569             2623             2624             2637             2636
            6558             1997             1996             6570             2624              186              185             2637
            6467             6559             6571             6466             2625             2626             2639             2638
            6559             6560             6572             6571             2626             2627             2640             2639
            6560             6561             6573             6572             2627             2628             2641             2640
            6561             6562             6574             6573             2628             2629             2642             2641
            6562             6563             6575             6574             2629             2630             2643             2642
            6563             6564             6576             6575             2630             2631             2644             2643
            6564             6565             6577             6576             2631             2632             2645             2644
            6565             6566             6578             6577             2632             2633             2646             2645
            6566             6567             6579             6578             2633             2634             2647             2646
            6567             6568             6580             6579             2634             2635             2648             2647
            6568             6569             6581             6580             2635             2636             2649             2648
            6569             6570             6582             6581             2636             2637             2650             2649
            6570             1996             1995             6582             2637              185              184             2650
            6466             6571             6583             6465             2638             2639             2652             2651
            6571             6572             6584             6583             2639             2640             2653             2652
            6572             6573             6585             6584             2640             2641             2654             2653
            6573             6574             6586             6585             2641             2642             2655             2654
            6574             6575             6587             6586             2642             2643             2656             2655
            6575             6576             6588             6587             2643             2644             2657             2656
            6576             6577             6589             6588             2644             2645             2658             2657
            6577             6578             6590             6589             2645             2646             2659             2658
            6578             6579             6591             6590             2646             2647             2660             2659
            6579             6580             6592             6591             2647             2648             2661             2660
            6580             6581             6593             6592             2648             2649             2662             2661
            6581             6582             6594             6593             2649             2650             2663             2662
            6582             1995             1994             6594             2650              184              183             2663
            6465             6583             6595             6464             2651             2652             2665             2664
            6583             6584             6596             6595             2652             2653             2666             2665
            6584             6585             6597             6596             2653             2654             2667             2666
            6585             6586             6598             6597             2654             2655             2668             2667
            6586             6587             6599             6598             2655             2656             2669             2668
            6587             6588             6600             6599             2656             2657             2670             2669
            6588             6589             6601             6600             2657             2658             2671             2670
            6589             6590             6602             6601             2658             2659             2672             2671
            6590             6591             6603             6602             2659             2660             2673             2672
            6591             6592             6604             6603             2660             2661             2674             2673
            6592             6593             6605             6604             2661             2662             2675             2674
            6593             6594             6606             6605             2662             2663             2676             2675
            6594             1994             1993             6606             2663              183              182             2676
            6464             6595             6607             6463             2664             2665             2678             2677
            6595             6596             6608             6607             2665             2666             2679             2678
            6596             6597             6609             6608             2666             2667             2680             2679
            6597             6598             6610             6609             2667             2668             2681             2680
            6598             6599             6611             6610             2668             2669             2682             2681
            6599             6600             6612             6611             2669             2670             2683             2682
            6600             6601             6613             6612             2670             2671             2684             2683
            6601             6602             6614             6613             2671             2672             2685             2684
            6602             6603             6615             6614             2672             2673             2686             2685
            6603             6604             6616             6615             2673             2674             2687             2686
            6604             6605             6617             6616             2674             2675             2688             2687
            6605             6606             6618             6617             2675             2676             2689             2688
            6606             1993             1992             6618             2676              182              181             2689
            6463             6607             6619             6462             2677             2678             2691             2690
            6607             6608             6620             6619             2678             2679             2692             2691
            6608             6609             6621             6620             2679             2680             2693             2692
            6609             6610             6622             6621             2680             2681             2694             2693
            6610             6611             6623             6622             2681             2682             2695             2694
            6611             6612             6624             6623             2682             2683             2696             2695
            6612             6613             6625             6624             2683             2684             2697             2696
            6613             6614             6626             6625             2684             2685             2698             2697
            6614             6615             6627             6626             2685             2686             2699             2698
            6615             6616             6628             6627             2686             2687             2700             2699
            6616             6617             6629             6628             2687             2688             2701             2700
            6617             6618             6630             6629             2688             2689             2702             2701
            6618             1992             1991             6630             2689              181              180             2702
            6462             6619             6461             6449             2690             2691             2704             2703
            6619             6620             6460             6461             2691             2692             2705             2704
            6620             6621             6459             6460             2692             2693             2706             2705
            6621             6622             6458             6459             2693             2694             2707             2706
            6622             6623             6457             6458             2694             2695             2708             2707
            6623             6624             6456             6457             2695             2696             2709             2708
            6624             6625             6455             6456             2696             2697             2710             2709
            6625             6626             6454             6455             2697             2698             2711             2710
            6626             6627             6453             6454             2698             2699             2712             2711
            6627             6628             6452             6453             2699             2700             2713             2712
            6628             6629             6451             6452             2700             2701             2714             2713
            6629             6630             6450             6451             2701             2702             2715             2714
            6630             1991             1990             6450             2702              180              179             2715
            1990             1989             6631             6450              179              178             2716             2715
            1989             1988             6632             6631              178              177             2717             2716
            1988             1987             6633             6632              177              176             2718             2717
            1987             1986             6634             6633              176              175             2719             2718
            1986             1985             6635             6634              175              174             2720             2719
            1985             1984             6636             6635              174              173             2721             2720
            1984             1983             6637             6636              173              172             2722             2721
            1983             1982             6638             6637              172              171             2723             2722
            1982             1981             6639             6638              171              170             2724             2723
            1981             1980             6640             6639              170              169             2725             2724
            1980             1979             6641             6640              169              168             2726             2725
            1979             1978             6642             6641              168              167             2727             2726
            1978               89             3066             6642              167                2              294             2727
            6450             6631             6643             6451             2715             2716             2728             2714
            6631             6632             6644             6643             2716             2717             2729             2728
            6632             6633             6645             6644             2717             2718             2730             2729
            6633             6634             6646             6645             2718             2719             2731             2730
            6634             6635             6647             6646             2719             2720             2732             2731
            6635             6636             6648             6647             2720             2721             2733             2732
            6636             6637             6649             6648             2721             2722             2734             2733
            6637             6638             6650             6649             2722             2723             2735             2734
            6638             6639             6651             6650             2723             2724             2736             2735
            6639             6640             6652             6651             2724             2725             2737             2736
            6640             6641             6653             6652             2725             2726             2738             2737
            6641             6642             6654             6653             2726             2727             2739             2738
            6642             3066             3067             6654             2727              294              295             2739
            6451             6643             6655             6452             2714             2728             2740             2713
            6643             6644             6656             6655             2728             2729             2741             2740
            6644             6645             6657             6656             2729             2730             2742             2741
            6645             6646             6658             6657             2730             2731             2743             2742
            6646             6647             6659             6658             2731             2732             2744             2743
            6647             6648             6660             6659             2732             2733             2745             2744
            6648             6649             6661             6660             2733             2734             2746             2745
            6649             6650             6662             6661             2734             2735             2747             2746
            6650             6651             6663             6662             2735             2736             2748             2747
            6651             6652             6664             6663             2736             2737             2749             2748
            6652             6653             6665             6664             2737             2738             2750             2749
            6653             6654             6666             6665             2738             2739             2751             2750
            6654             3067             3068             6666             2739              295              296             2751
            6452             6655             6667             6453             2713             2740             2752             2712
            6655             6656             6668             6667             2740             2741             2753             2752
            6656             6657             6669             6668             2741             2742             2754             2753
            6657             6658             6670             6669             2742             2743             2755             2754
            6658             6659             6671             6670             2743             2744             2756             2755
            6659             6660             6672             6671             2744             2745             2757             2756
            6660             6661             6673             6672             2745             2746             2758             2757
            6661             6662             6674             6673             2746             2747             2759             2758
            6662             6663             6675             6674             2747             2748             2760             2759
            6663             6664             6676             6675             2748             2749             2761             2760
            6664             6665             6677             6676             2749             2750             2762             2761
            6665             6666             6678             6677             2750             2751             2763             2762
            6666             3068             3069             6678             2751              296              297             2763
            6453             6667             6679             6454             2712             2752             2764             2711
            6667             6668             6680             6679             2752             2753             2765             2764
            6668             6669             6681             6680             2753             2754             2766             2765
            6669             6670             6682             6681             2754             2755             2767             2766
            6670             6671             6683             6682             2755             2756             2768             2767
            6671             6672             6684             6683             2756             2757             2769             2768
            6672             6673             6685             6684             2757             2758             2770             2769
            6673             6674             6686             6685             2758             2759             2771             2770
            6674             6675             6687             6686             2759             2760             2772             2771
            6675             6676             6688             6687             2760             2761             2773             2772
            6676             6677             6689             6688             2761             2762             2774             2773
            6677             6678             6690             6689             2762             2763             2775             2774
            6678             3069             3070             6690             2763              297              298             2775
            6454             6679             6691             6455             2711             2764             2776             2710
            6679             6680             6692             6691             2764             2765             2777             2776
            6680             6681             6693             6692             2765             2766             2778             2777
            6681             6682             6694             6693             2766             2767             2779             2778
            6682             6683             6695             6694             2767             2768             2780             2779
            6683             6684             6696             6695             2768             2769             2781             2780
            6684             6685             6697             6696             2769             2770             2782             2781
            6685             6686             6698             6697             2770             2771             2783             2782
            6686             6687             6699             6698             2771             2772             2784             2783
            6687             6688             6700             6699             2772             2773             2785             2784
            6688             6689             6701             6700             2773             2774             2786             2785
            6689             6690             6702             6701             2774             2775             2787             2786
            6690             3070             3071             6702             2775              298              299             2787
            6455             6691             6703             6456             2710             2776             2788             2709
            6691             6692             6704             6703             2776             2777             2789             2788
            6692             6693             6705             6704             2777             2778             2790             2789
            6693             6694             6706             6705             2778             2779             2791             2790
            6694             6695             6707             6706             2779             2780             2792             2791
            6695             6696             6708             6707             2780             2781             2793             2792
            6696             6697             6709             6708             2781             2782             2794             2793
            6697             6698             6710             6709             2782             2783             2795             2794
            6698             6699             6711             6710             2783             2784             2796             2795
            6699             6700             6712             6711             2784             2785             2797             2796
            6700             6701             6713             6712             2785             2786             2798             2797
            6701             6702             6714             6713             2786             2787             2799             2798
            6702             3071             3072             6714             2787              299              300             2799
            6456             6703             6715             6457             2709             2788             2800             2708
            6703             6704             6716             6715             2788             2789             2801             2800
            6704             6705             6717             6716             2789             2790             2802             2801
            6705             6706             6718             6717             2790             2791             2803             2802
            6706             6707             6719             6718             2791             2792             2804             2803
            6707             6708             6720             6719             2792             2793             2805             2804
            6708             6709             6721             6720             2793             2794             2806             2805
            6709             6710             6722             6721             2794             2795             2807             2806
            6710             6711             6723             6722             2795             2796             2808             2807
            6711             6712             6724             6723             2796             2797             2809             2808
            6712             6713             6725             6724             2797             2798             2810             2809
            6713             6714             6726             6725             2798             2799             2811             2810
            6714             3072             3073             6726             2799              300              301             2811
            6457             6715             6727             6458             2708             2800             2812             2707
            6715             6716             6728             6727             2800             2801             2813             2812
            6716             6717             6729             6728             2801             2802             2814             2813
            6717             6718             6730             6729             2802             2803             2815             2814
            6718             6719             6731             6730             2803             2804             2816             2815
            6719             6720             6732             6731             2804             2805             2817             2816
            6720             6721             6733             6732             2805             2806             2818             2817
            6721             6722             6734             6733             2806             2807             2819             2818
            6722             6723             6735             6734             2807             2808             2820             2819
            6723             6724             6736             6735             2808             2809             2821             2820
            6724             6725             6737             6736             2809             2810             2822             2821
            6725             6726             6738             6737             2810             2811             2823             2822
            6726             3073             3074             6738             2811              301              302             2823
            6458             6727             6739             6459             2707             2812             2824             2706
            6727             6728             6740             6739             2812             2813             2825             2824
            6728             6729             6741             6740             2813             2814             2826             2825
            6729             6730             6742             6741             2814             2815             2827             2826
            6730             6731             6743             6742             2815             2816             2828             2827
            6731             6732             6744             6743             2816             2817             2829             2828
            6732             6733             6745             6744             2817             2818             2830             2829
            6733             6734             6746             6745             2818             2819             2831             2830
            6734             6735             6747             6746             2819             2820             2832             2831
            6735             6736             6748             6747             2820             2821             2833             2832
            6736             6737             6749             6748             2821             2822             2834             2833
            6737             6738             6750             6749             2822             2823             2835             2834
            6738             3074             3075             6750             2823              302              303             2835
            6459             6739             6751             6460             2706             2824             2836             2705
            6739             6740             6752             6751             2824             2825             2837             2836
            6740             6741             6753             6752             2825             2826             2838             2837
            6741             6742             6754             6753             2826             2827             2839             2838
            6742             6743             6755             6754             2827             2828             2840             2839
            6743             6744             6756             6755             2828             2829             2841             2840
            6744             6745             6757             6756             2829             2830             2842             2841
            6745             6746             6758             6757             2830             2831             2843             2842
            6746             6747             6759             6758             2831             2832             2844             2843
            6747             6748             6760             6759             2832             2833             2845             2844
            6748             6749             6761             6760             2833             2834             2846             2845
            6749             6750             6762             6761             2834             2835             2847             2846
            6750             3075             3076             6762             2835              303              304             2847
            6460             6751             6763             6461             2705             2836             2848             2704
            6751             6752             6764             6763             2836             2837             2849             2848
            6752             6753             6765             6764             2837             2838             2850             2849
            6753             6754             6766             6765             2838             2839             2851             2850
            6754             6755             6767             6766             2839             2840             2852             2851
            6755             6756             6768             6767             2840             2841             2853             2852
            6756             6757             6769             6768             2841             2842             2854             2853
            6757             6758             6770             6769             2842             2843             2855             2854
            6758             6759             6771             6770             2843             2844             2856             2855
            6759             6760             6772             6771             2844             2845             2857             2856
            6760             6761             6773             6772             2845             2846             2858             2857
            6761             6762             6774             6773             2846             2847             2859             2858
            6762             3076             3077             6774             2847              304              305             2859
            6461             6763             6474             6449             2704             2848             2860             2703
            6763             6764             6475             6474             2848             2849             2861             2860
            6764             6765             6476             6475             2849             2850             2862             2861
            6765             6766             6477             6476             2850             2851             2863             2862
            6766             6767             6478             6477             2851             2852             2864             2863
            6767             6768             6479             6478             2852             2853             2865             2864
            6768             6769             6480             6479             2853             2854             2866             2865
            6769             6770             6481             6480             2854             2855             2867             2866
            6770             6771             6482             6481             2855             2856             2868             2867
            6771             6772             6483             6482             2856             2857             2869             2868
            6772             6773             6484             6483             2857             2858             2870             2869
            6773             6774             6485             6484             2858             2859             2871             2870
            6774             3077             3078             6485             2859              305              306             2871
            3078             3079             6775             6485              306              307             2872             2871
            3079             3080             6776             6775              307              308             2873             2872
            3080             3081             6777             6776              308              309             2874             2873
            3081             3082             6778             6777              309              310             2875             2874
            3082             3083             6779             6778              310              311             2876             2875
            3083             3084             6780             6779              311              312             2877             2876
            3084             3085             6781             6780              312              313             2878             2877
            3085             3086             6782             6781              313              314             2879             2878
            3086             3087             6783             6782              314              315             2880             2879
            3087             3088             6784             6783              315              316             2881             2880
            3088             3089             6785             6784              316              317             2882             2881
            3089             3090             6786             6785              317              318             2883             2882
            3090              319             3029             6786              318                9              269             2883
            6485             6775             6787             6484             2871             2872             2884             2870
            6775             6776             6788             6787             2872             2873             2885             2884
            6776             6777             6789             6788             2873             2874             2886             2885
            6777             6778             6790             6789             2874             2875             2887             2886
            6778             6779             6791             6790             2875             2876             2888             2887
            6779             6780             6792             6791             2876             2877             2889             2888
            6780             6781             6793             6792             2877             2878             2890             2889
            6781             6782             6794             6793             2878             2879             2891             2890
            6782             6783             6795             6794             2879             2880             2892             2891
            6783             6784             6796             6795             2880             2881             2893             2892
            6784             6785             6797             6796             2881             2882             2894             2893
            6785             6786             6798             6797             2882             2883             2895             2894
            6786             3029             3030             6798             2883              269              270             2895
            6484             6787             6799             6483             2870             2884             2896             2869
            6787             6788             6800             6799             2884             2885             2897             2896
            6788             6789             6801             6800             2885             2886             2898             2897
            6789             6790             6802             6801             2886             2887             2899             2898
            6790             6791             6803             6802             2887             2888             2900             2899
            6791             6792             6804             6803             2888             2889             2901             2900
            6792             6793             6805             6804             2889             2890             2902             2901
            6793             6794             6806             6805             2890             2891             2903             2902
            6794             6795             6807             6806             2891             2892             2904             2903
            6795             6796             6808             6807             2892             2893             2905             2904
            6796             6797             6809             6808             2893             2894             2906             2905
            6797             6798             6810             6809             2894             2895             2907             2906
            6798             3030             3031             6810             2895              270              271             2907
            6483             6799             6811             6482             2869             2896             2908             2868
            6799             6800             6812             6811             2896             2897             2909             2908
            6800             6801             6813             6812             2897             2898             2910             2909
            6801             6802             6814             6813             2898             2899             2911             2910
            6802             6803             6815             6814             2899             2900             2912             2911
            6803             6804             6816             6815             2900             2901             2913             2912
            6804             6805             6817             6816             2901             2902             2914             2913
            6805             6806             6818             6817             2902             2903             2915             2914
            6806             6807             6819             6818             2903             2904             2916             2915
            6807             6808             6820             6819             2904             2905             2917             2916
            6808             6809             6821             6820             2905             2906             2918             2917
            6809             6810             6822             6821             2906             2907             2919             2918
            6810             3031             3032             6822             2907              271              272             2919
            6482             6811             6823             6481             2868             2908             2920             2867
            6811             6812             6824             6823             2908             2909             2921             2920
            6812             6813             6825             6824             2909             2910             2922             2921
            6813             6814             6826             6825             2910             2911             2923             2922
            6814             6815             6827             6826             2911             2912             2924             2923
            6815             6816             6828             6827             2912             2913             2925             2924
            6816             6817             6829             6828             2913             2914             2926             2925
            6817             6818             6830             6829             2914             2915             2927             2926
            6818             6819             6831             6830             2915             2916             2928             2927
            6819             6820             6832             6831             2916             2917             2929             2928
            6820             6821             6833             6832             2917             2918             2930             2929
            6821             6822             6834             6833             2918             2919             2931             2930
            6822             3032             3033             6834             2919              272              273             2931
            6481             6823             6835             6480             2867             2920             2932             2866
            6823             6824             6836             6835             2920             2921             2933             2932
            6824             6825             6837             6836             2921             2922             2934             2933
            6825             6826             6838             6837             2922             2923             2935             2934
            6826             6827             6839             6838             2923             2924             2936             2935
            6827             6828             6840             6839             2924             2925             2937             2936
            6828             6829             6841             6840             2925             2926             2938             2937
            6829             6830             6842             6841             2926             2927             2939             2938
            6830             6831             6843             6842             2927             2928             2940             2939
            6831             6832             6844             6843             2928             2929             2941             2940
            6832             6833             6845             6844             2929             2930             2942             2941
            6833             6834             6846             6845             2930             2931             2943             2942
            6834             3033             3034             6846             2931              273              274             2943
            6480             6835             6847             6479             2866             2932             2944             2865
            6835             6836             6848             6847             2932             2933             2945             2944
            6836             6837             6849             6848             2933             2934             2946             2945
            6837             6838             6850             6849             2934             2935             2947             2946
            6838             6839             6851             6850             2935             2936             2948             2947
            6839             6840             6852             6851             2936             2937             2949             2948
            6840             6841             6853             6852             2937             2938             2950             2949
            6841             6842             6854             6853             2938             2939             2951             2950
            6842             6843             6855             6854             2939             2940             2952             2951
            6843             6844             6856             6855             2940             2941             2953             2952
            6844             6845             6857             6856             2941             2942             2954             2953
            6845             6846             6858             6857             2942             2943             2955             2954
            6846             3034             3035             6858             2943              274              275             2955
            6479             6847             6859             6478             2865             2944             2956             2864
            6847             6848             6860             6859             2944             2945             2957             2956
            6848             6849             6861             6860             2945             2946             2958             2957
            6849             6850             6862             6861             2946             2947             2959             2958
            6850             6851             6863             6862             2947             2948             2960             2959
            6851             6852             6864             6863             2948             2949             2961             2960
            6852             6853             6865             6864             2949             2950             2962             2961
            6853             6854             6866             6865             2950             2951             2963             2962
            6854             6855             6867             6866             2951             2952             2964             2963
            6855             6856             6868             6867             2952             2953             2965             2964
            6856             6857             6869             6868             2953             2954             2966             2965
            6857             6858             6870             6869             2954             2955             2967             2966
            6858             3035             3036             6870             2955              275              276             2967
            6478             6859             6871             6477             2864             2956             2968             2863
            6859             6860             6872             6871             2956             2957             2969             2968
            6860             6861             6873             6872             2957             2958             2970             2969
            6861             6862             6874             6873             2958             2959             2971             2970
            6862             6863             6875             6874             2959             2960             2972             2971
            6863             6864             6876             6875             2960             2961             2973             2972
            6864             6865             6877             6876             2961             2962             2974             2973
            6865             6866             6878             6877             2962             2963             2975             2974
            6866             6867             6879             6878             2963             2964             2976             2975
            6867             6868             6880             6879             2964             2965             2977             2976
            6868             6869             6881             6880             2965             2966             2978             2977
            6869             6870             6882             6881             2966             2967             2979             2978
            6870             3036             3037             6882             2967              276              277             2979
            6477             6871             6883             6476             2863             2968             2980             2862
            6871             6872             6884             6883             2968             2969             2981             2980
            6872             6873             6885             6884             2969             2970             2982             2981
            6873             6874             6886             6885             2970             2971             2983             2982
            6874             6875             6887             6886             2971             2972             2984             2983
            6875             6876             6888             6887             2972             2973             2985             2984
            6876             6877             6889             6888             2973             2974             2986             2985
            6877             6878             6890             6889             2974             2975             2987             2986
            6878             6879             6891             6890             2975             2976             2988             2987
            6879             6880             6892             6891             2976             2977             2989             2988
            6880             6881             6893             6892             2977             2978             2990             2989
            6881             6882             6894             6893             2978             2979             2991             2990
            6882             3037             3038             6894             2979              277              278             2991
            6476             6883             6895             6475             2862             2980             2992             2861
            6883             6884             6896             6895             2980             2981             2993             2992
            6884             6885             6897             6896             2981             2982             2994             2993
            6885             6886             6898             6897             2982             2983             2995             2994
            6886             6887             6899             6898             2983             2984             2996             2995
            6887             6888             6900             6899             2984             2985             2997             2996
            6888             6889             6901             6900             2985             2986             2998             2997
            6889             6890             6902             6901             2986             2987             2999             2998
            6890             6891             6903             6902             2987             2988             3000             2999
            6891             6892             6904             6903             2988             2989             3001             3000
            6892             6893             6905             6904             2989             2990             3002             3001
            6893             6894             6906             6905             2990             2991             3003             3002
            6894             3038             3039             6906             2991              278              279             3003
            6475             6895             6907             6474             2861             2992             3004             2860
            6895             6896             6908             6907             2992             2993             3005             3004
            6896             6897             6909             6908             2993             2994             3006             3005
            6897             6898             6910             6909             2994             2995             3007             3006
            6898             6899             6911             6910             2995             2996             3008             3007
            6899             6900             6912             6911             2996             2997             3009             3008
            6900             6901             6913             6912             2997             2998             3010             3009
            6901             6902             6914             6913             2998             2999             3011             3010
            6902             6903             6915             6914             2999             3000             3012             3011
            6903             6904             6916             6915             3000             3001             3013             3012
            6904             6905             6917             6916             3001             3002             3014             3013
            6905             6906             6918             6917             3002             3003             3015             3014
            6906             3039             3040             6918             3003              279              280             3015
            6474             6907             6462             6449             2860             3004             2690             2703
            6907             6908             6463             6462             3004             3005             2677             2690
            6908             6909             6464             6463             3005             3006             2664             2677
            6909             6910             6465             6464             3006             3007             2651             2664
            6910             6911             6466             6465             3007             3008             2638             2651
            6911             6912             6467             6466             3008             3009             2625             2638
            6912             6913             6468             6467             3009             3010             2612             2625
            6913             6914             6469             6468             3010             3011             2599             2612
            6914             6915             6470             6469             3011             3012             2586             2599
            6915             6916             6471             6470             3012             3013             2573             2586
            6916             6917             6472             6471             3013             3014             2560             2573
            6917             6918             6473             6472             3014             3015             2547             2560
            6918             3040             3016             6473             3015              280              281             2547
            3116             3117             6955             6931              231              230             2014             2015
            3117             3118             6956             6955              230              229             2013             2014
            3118             3119             6957             6956              229              228             2012             2013
            3119             3120             6958             6957              228              227             2011             2012
            3120             3121             6959             6958              227              226             2010             2011
            3121             3122             6960             6959              226              225             2009             2010
            3122             3123             6961             6960              225              224             2008             2009
            3123             3124             6962             6961              224              223             2007             2008
            3124             3125             6963             6962              223              222             2006             2007
            3125             3126             6964             6963              222              221             2005             2006
            3126             3127             6965             6964              221              220             2004             2005
            3127             3128             6966             6965              220              219             2003             2004
            3128              321             3091             6966              219                5               88             2003
            6931             6955             6631             6450             2015             2014             1989             1990
            6955             6956             6632             6631             2014             2013             1988             1989
            6956             6957             6633             6632             2013             2012             1987             1988
            6957             6958             6634             6633             2012             2011             1986             1987
            6958             6959             6635             6634             2011             2010             1985             1986
            6959             6960             6636             6635             2010             2009             1984             1985
            6960             6961             6637             6636             2009             2008             1983             1984
            6961             6962             6638             6637             2008             2007             1982             1983
            6962             6963             6639             6638             2007             2006             1981             1982
            6963             6964             6640             6639             2006             2005             1980             1981
            6964             6965             6641             6640             2005             2004             1979             1980
            6965             6966             6642             6641             2004             2003             1978             1979
            6966             3091             3066             6642             2003               88               89             1978
            3129             3130             6967             6932             3116             3117             6955             6931
            3130             3131             6968             6967             3117             3118             6956             6955
            3131             3132             6969             6968             3118             3119             6957             6956
            3132             3133             6970             6969             3119             3120             6958             6957
            3133             3134             6971             6970             3120             3121             6959             6958
            3134             3135             6972             6971             3121             3122             6960             6959
            3135             3136             6973             6972             3122             3123             6961             6960
            3136             3137             6974             6973             3123             3124             6962             6961
            3137             3138             6975             6974             3124             3125             6963             6962
            3138             3139             6976             6975             3125             3126             6964             6963
            3139             3140             6977             6976             3126             3127             6965             6964
            3140             3141             6978             6977             3127             3128             6966             6965
            3141              322             3092             6978             3128              321             3091             6966
            6932             6967             6643             6451             6931             6955             6631             6450
            6967             6968             6644             6643             6955             6956             6632             6631
            6968             6969             6645             6644             6956             6957             6633             6632
            6969             6970             6646             6645             6957             6958             6634             6633
            6970             6971             6647             6646             6958             6959             6635             6634
            6971             6972             6648             6647             6959             6960             6636             6635
            6972             6973             6649             6648             6960             6961             6637             6636
            6973             6974             6650             6649             6961             6962             6638             6637
            6974             6975             6651             6650             6962             6963             6639             6638
            6975             6976             6652             6651             6963             6964             6640             6639
            6976             6977             6653             6652             6964             6965             6641             6640
            6977             6978             6654             6653             6965             6966             6642             6641
            6978             3092             3067             6654             6966             3091             3066             6642
            3142             3143             6979             6933             3129             3130             6967             6932
            3143             3144             6980             6979             3130             3131             6968             6967
            3144             3145             6981             6980             3131             3132             6969             6968
            3145             3146             6982             6981             3132             3133             6970             6969
            3146             3147             6983             6982             3133             3134             6971             6970
            3147             3148             6984             6983             3134             3135             6972             6971
            3148             3149             6985             6984             3135             3136             6973             6972
            3149             3150             6986             6985             3136             3137             6974             6973
            3150             3151             6987             6986             3137             3138             6975             6974
            3151             3152             6988             6987             3138             3139             6976             6975
            3152             3153             6989             6988             3139             3140             6977             6976
            3153             3154             6990             6989             3140             3141             6978             6977
            3154              323             3093             6990             3141              322             3092             6978
            6933             6979             6655             6452             6932             6967             6643             6451
            6979             6980             6656             6655             6967             6968             6644             6643
            6980             6981             6657             6656             6968             6969             6645             6644
            6981             6982             6658             6657             6969             6970             6646             6645
            6982             6983             6659             6658             6970             6971             6647             6646
            6983             6984             6660             6659             6971             6972             6648             6647
            6984             6985             6661             6660             6972             6973             6649             6648
            6985             6986             6662             6661             6973             6974             6650             6649
            6986             6987             6663             6662             6974             6975             6651             6650
            6987             6988             6664             6663             6975             6976             6652             6651
            6988             6989             6665             6664             6976             6977             6653             6652
            6989             6990             6666             6665             6977             6978             6654             6653
            6990             3093             3068             6666             6978             3092             3067             6654
            3155             3156             6991             6934             3142             3143             6979             6933
            3156             3157             6992             6991             3143             3144             6980             6979
            3157             3158             6993             6992             3144             3145             6981             6980
            3158             3159             6994             6993             3145             3146             6982             6981
            3159             3160             6995             6994             3146             3147             6983             6982
            3160             3161             6996             6995             3147             3148             6984             6983
            3161             3162             6997             6996             3148             3149             6985             6984
            3162             3163             6998             6997             3149             3150             6986             6985
            3163             3164             6999             6998             3150             3151             6987             6986
            3164             3165             7000             6999             3151             3152             6988             6987
            3165             3166             7001             7000             3152             3153             6989             6988
            3166             3167             7002             7001             3153             3154             6990             6989
            3167              324             3094             7002             3154              323             3093             6990
            6934             6991             6667             6453             6933             6979             6655             6452
            6991             6992             6668             6667             6979             6980             6656             6655
            6992             6993             6669             6668             6980             6981             6657             6656
            6993             6994             6670             6669             6981             6982             6658             6657
            6994             6995             6671             6670             6982             6983             6659             6658
            6995             6996             6672             6671             6983             6984             6660             6659
            6996             6997             6673             6672             6984             6985             6661             6660
            6997             6998             6674             6673             6985             6986             6662             6661
            6998             6999             6675             6674             6986             6987             6663             6662
            6999             7000             6676             6675             6987             6988             6664             6663
            7000             7001             6677             6676             6988             6989             6665             6664
            7001             7002             6678             6677             6989             6990             6666             6665
            7002             3094             3069             6678             6990             3093             3068             6666
            3168             3169             7003             6935             3155             3156             6991             6934
            3169             3170             7004             7003             3156             3157             6992             6991
            3170             3171             7005             7004             3157             3158             6993             6992
            3171             3172             7006             7005             3158             3159             6994             6993
            3172             3173             7007             7006             3159             3160             6995             6994
            3173             3174             7008             7007             3160             3161             6996             6995
            3174             3175             7009             7008             3161             3162             6997             6996
            3175             3176             7010             7009             3162             3163             6998             6997
            3176             3177             7011             7010             3163             3164             6999             6998
            3177             3178             7012             7011             3164             3165             7000             6999
            3178             3179             7013             7012             3165             3166             7001             7000
            3179             3180             7014             7013             3166             3167             7002             7001
            3180              325             3095             7014             3167              324             3094             7002
            6935             7003             6679             6454             6934             6991             6667             6453
            7003             7004             6680             6679             6991             6992             6668             6667
            7004             7005             6681             6680             6992             6993             6669             6668
            7005             7006             6682             6681             6993             6994             6670             6669
            7006             7007             6683             6682             6994             6995             6671             6670
            7007             7008             6684             6683             6995             6996             6672             6671
            7008             7009             6685             6684             6996             6997             6673             6672
            7009             7010             6686             6685             6997             6998             6674             6673
            7010             7011             6687             6686             6998             6999             6675             6674
            7011             7012             6688             6687             6999             7000             6676             6675
            7012             7013             6689             6688             7000             7001             6677             6676
            7013             7014             6690             6689             7001             7002             6678             6677
            7014             3095             3070             6690             7002             3094             3069             6678
            3181             3182             7015             6936             3168             3169             7003             6935
            3182             3183             7016             7015             3169             3170             7004             7003
            3183             3184             7017             7016             3170             3171             7005             7004
            3184             3185             7018             7017             3171             3172             7006             7005
            3185             3186             7019             7018             3172             3173             7007             7006
            3186             3187             7020             7019             3173             3174             7008             7007
            3187             3188             7021             7020             3174             3175             7009             7008
            3188             3189             7022             7021             3175             3176             7010             7009
            3189             3190             7023             7022             3176             3177             7011             7010
            3190             3191             7024             7023             3177             3178             7012             7011
            3191             3192             7025             7024             3178             3179             7013             7012
            3192             3193             7026             7025             3179             3180             7014             7013
            3193              326             3096             7026             3180              325             3095             7014
            6936             7015             6691             6455             6935             7003             6679             6454
            7015             7016             6692             6691             7003             7004             6680             6679
            7016             7017             6693             6692             7004             7005             6681             6680
            7017             7018             6694             6693             7005             7006             6682             6681
            7018             7019             6695             6694             7006             7007             6683             6682
            7019             7020             6696             6695             7007             7008             6684             6683
            7020             7021             6697             6696             7008             7009             6685             6684
            7021             7022             6698             6697             7009             7010             6686             6685
            7022             7023             6699             6698             7010             7011             6687             6686
            7023             7024             6700             6699             7011             7012             6688             6687
            7024             7025             6701             6700             7012             7013             6689             6688
            7025             7026             6702             6701             7013             7014             6690             6689
            7026             3096             3071             6702             7014             3095             3070             6690
            3194             3195             7027             6937             3181             3182             7015             6936
            3195             3196             7028             7027             3182             3183             7016             7015
            3196             3197             7029             7028             3183             3184             7017             7016
            3197             3198             7030             7029             3184             3185             7018             7017
            3198             3199             7031             7030             3185             3186             7019             7018
            3199             3200             7032             7031             3186             3187             7020             7019
            3200             3201             7033             7032             3187             3188             7021             7020
            3201             3202             7034             7033             3188             3189             7022             7021
            3202             3203             7035             7034             3189             3190             7023             7022
            3203             3204             7036             7035             3190             3191             7024             7023
            3204             3205             7037             7036             3191             3192             7025             7024
            3205             3206             7038             7037             3192             3193             7026             7025
            3206              327             3097             7038             3193              326             3096             7026
            6937             7027             6703             6456             6936             7015             6691             6455
            7027             7028             6704             6703             7015             7016             6692             6691
            7028             7029             6705             6704             7016             7017             6693             6692
            7029             7030             6706             6705             7017             7018             6694             6693
            7030             7031             6707             6706             7018             7019             6695             6694
            7031             7032             6708             6707             7019             7020             6696             6695
            7032             7033             6709             6708             7020             7021             6697             6696
            7033             7034             6710             6709             7021             7022             6698             6697
            7034             7035             6711             6710             7022             7023             6699             6698
            7035             7036             6712             6711             7023             7024             6700             6699
            7036             7037             6713             6712             7024             7025             6701             6700
            7037             7038             6714             6713             7025             7026             6702             6701
            7038             3097             3072             6714             7026             3096             3071             6702
            3207             3208             7039             6938             3194             3195             7027             6937
            3208             3209             7040             7039             3195             3196             7028             7027
            3209             3210             7041             7040             3196             3197             7029             7028
            3210             3211             7042             7041             3197             3198             7030             7029
            3211             3212             7043             7042             3198             3199             7031             7030
            3212             3213             7044             7043             3199             3200             7032             7031
            3213             3214             7045             7044             3200             3201             7033             7032
            3214             3215             7046             7045             3201             3202             7034             7033
            3215             3216             7047             7046             3202             3203             7035             7034
            3216             3217             7048             7047             3203             3204             7036             7035
            3217             3218             7049             7048             3204             3205             7037             7036
            3218             3219             7050             7049             3205             3206             7038             7037
            3219              328             3098             7050             3206              327             3097             7038
            6938             7039             6715             6457             6937             7027             6703             6456
            7039             7040             6716             6715             7027             7028             6704             6703
            7040             7041             6717             6716             7028             7029             6705             6704
            7041             7042             6718             6717             7029             7030             6706             6705
            7042             7043             6719             6718             7030             7031             6707             6706
            7043             7044             6720             6719             7031             7032             6708             6707
            7044             7045             6721             6720             7032             7033             6709             6708
            7045             7046             6722             6721             7033             7034             6710             6709
            7046             7047             6723             6722             7034             7035             6711             6710
            7047             7048             6724             6723             7035             7036             6712             6711
            7048             7049             6725             6724             7036             7037             6713             6712
            7049             7050             6726             6725             7037             7038             6714             6713
            7050             3098             3073             6726             7038             3097             3072             6714
            3220             3221             7051             6939             3207             3208             7039             6938
            3221             3222             7052             7051             3208             3209             7040             7039
            3222             3223             7053             7052             3209             3210             7041             7040
            3223             3224             7054             7053             3210             3211             7042             7041
            3224             3225             7055             7054             3211             3212             7043             7042
            3225             3226             7056             7055             3212             3213             7044             7043
            3226             3227             7057             7056             3213             3214             7045             7044
            3227             3228             7058             7057             3214             3215             7046             7045
            3228             3229             7059             7058             3215             3216             7047             7046
            3229             3230             7060             7059             3216             3217             7048             7047
            3230             3231             7061             7060             3217             3218             7049             7048
            3231             3232             7062             7061             3218             3219             7050             7049
            3232              329             3099             7062             3219              328             3098             7050
            6939             7051             6727             6458             6938             7039             6715             6457
            7051             7052             6728             6727             7039             7040             6716             6715
            7052             7053             6729             6728             7040             7041             6717             6716
            7053             7054             6730             6729             7041             7042             6718             6717
            7054             7055             6731             6730             7042             7043             6719             6718
            7055             7056             6732             6731             7043             7044             6720             6719
            7056             7057             6733             6732             7044             7045             6721             6720
            7057             7058             6734             6733             7045             7046             6722             6721
            7058             7059             6735             6734             7046             7047             6723             6722
            7059             7060             6736             6735             7047             7048             6724             6723
            7060             7061             6737             6736             7048             7049             6725             6724
            7061             7062             6738             6737             7049             7050             6726             6725
            7062             3099             3074             6738             7050             3098             3073             6726
            3233             3234             7063             6940             3220             3221             7051             6939
            3234             3235             7064             7063             3221             3222             7052             7051
            3235             3236             7065             7064             3222             3223             7053             7052
            3236             3237             7066             7065             3223             3224             7054             7053
            3237             3238             7067             7066             3224             3225             7055             7054
            3238             3239             7068             7067             3225             3226             7056             7055
            3239             3240             7069             7068             3226             3227             7057             7056
            3240             3241             7070             7069             3227             3228             7058             7057
            3241             3242             7071             7070             3228             3229             7059             7058
            3242             3243             7072             7071             3229             3230             7060             7059
            3243             3244             7073             7072             3230             3231             7061             7060
            3244             3245             7074             7073             3231             3232             7062             7061
            3245              330             3100             7074             3232              329             3099             7062
            6940             7063             6739             6459             6939             7051             6727             6458
            7063             7064             6740             6739             7051             7052             6728             6727
            7064             7065             6741             6740             7052             7053             6729             6728
            7065             7066             6742             6741             7053             7054             6730             6729
            7066             7067             6743             6742             7054             7055             6731             6730
            7067             7068             6744             6743             7055             7056             6732             6731
            7068             7069             6745             6744             7056             7057             6733             6732
            7069             7070             6746             6745             7057             7058             6734             6733
            7070             7071             6747             6746             7058             7059             6735             6734
            7071             7072             6748             6747             7059             7060             6736             6735
            7072             7073             6749             6748             7060             7061             6737             6736
            7073             7074             6750             6749             7061             7062             6738             6737
            7074             3100             3075             6750             7062             3099             3074             6738
            3246             3247             7075             6941             3233             3234             7063             6940
            3247             3248             7076             7075             3234             3235             7064             7063
            3248             3249             7077             7076             3235             3236             7065             7064
            3249             3250             7078             7077             3236             3237             7066             7065
            3250             3251             7079             7078             3237             3238             7067             7066
            3251             3252             7080             7079             3238             3239             7068             7067
            3252             3253             7081             7080             3239             3240             7069             7068
            3253             3254             7082             7081             3240             3241             7070             7069
            3254             3255             7083             7082             3241             3242             7071             7070
            3255             3256             7084             7083             3242             3243             7072             7071
            3256             3257             7085             7084             3243             3244             7073             7072
            3257             3258             7086             7085             3244             3245             7074             7073
            3258              331             3101             7086             3245              330             3100             7074
            6941             7075             6751             6460             6940             7063             6739             6459
            7075             7076             6752             6751             7063             7064             6740             6739
            7076             7077             6753             6752             7064             7065             6741             6740
            7077             7078             6754             6753             7065             7066             6742             6741
            7078             7079             6755             6754             7066             7067             6743             6742
            7079             7080             6756             6755             7067             7068             6744             6743
            7080             7081             6757             6756             7068             7069             6745             6744
            7081             7082             6758             6757             7069             7070             6746             6745
            7082             7083             6759             6758             7070             7071             6747             6746
            7083             7084             6760             6759             7071             7072             6748             6747
            7084             7085             6761             6760             7072             7073             6749             6748
            7085             7086             6762             6761             7073             7074             6750             6749
            7086             3101             3076             6762             7074             3100             3075             6750
            3259             3260             7087             6942             3246             3247             7075             6941
            3260             3261             7088             7087             3247             3248             7076             7075
            3261             3262             7089             7088             3248             3249             7077             7076
            3262             3263             7090             7089             3249             3250             7078             7077
            3263             3264             7091             7090             3250             3251             7079             7078
            3264             3265             7092             7091             3251             3252             7080             7079
            3265             3266             7093             7092             3252             3253             7081             7080
            3266             3267             7094             7093             3253             3254             7082             7081
            3267             3268             7095             7094             3254             3255             7083             7082
            3268             3269             7096             7095             3255             3256             7084             7083
            3269             3270             7097             7096             3256             3257             7085             7084
            3270             3271             7098             7097             3257             3258             7086             7085
            3271              332             3102             7098             3258              331             3101             7086
            6942             7087             6763             6461             6941             7075             6751             6460
            7087             7088             6764             6763             7075             7076             6752             6751
            7088             7089             6765             6764             7076             7077             6753             6752
            7089             7090             6766             6765             7077             7078             6754             6753
            7090             7091             6767             6766             7078             7079             6755             6754
            7091             7092             6768             6767             7079             7080             6756             6755
            7092             7093             6769             6768             7080             7081             6757             6756
            7093             7094             6770             6769             7081             7082             6758             6757
            7094             7095             6771             6770             7082             7083             6759             6758
            7095             7096             6772             6771             7083             7084             6760             6759
            7096             7097             6773             6772             7084             7085             6761             6760
            7097             7098             6774             6773             7085             7086             6762             6761
            7098             3102             3077             6774             7086             3101             3076             6762
            3272             3273             6919             6486             3259             3260             7087             6942
            3273             3274             6920             6919             3260             3261             7088             7087
            3274             3275             6921             6920             3261             3262             7089             7088
            3275             3276             6922             6921             3262             3263             7090             7089
            3276             3277             6923             6922             3263             3264             7091             7090
            3277             3278             6924             6923             3264             3265             7092             7091
            3278             3279             6925             6924             3265             3266             7093             7092
            3279             3280             6926             6925             3266             3267             7094             7093
            3280             3281             6927             6926             3267             3268             7095             7094
            3281             3282             6928             6927             3268             3269             7096             7095
            3282             3283             6929             6928             3269             3270             7097             7096
            3283             3284             6930             6929             3270             3271             7098             7097
            3284              333             3103             6930             3271              332             3102             7098
            6486             6919             6474             6449             6942             7087             6763             6461
            6919             6920             6475             6474             7087             7088             6764             6763
            6920             6921             6476             6475             7088             7089             6765             6764
            6921             6922             6477             6476             7089             7090             6766             6765
            6922             6923             6478             6477             7090             7091             6767             6766
            6923             6924             6479             6478             7091             7092             6768             6767
            6924             6925             6480             6479             7092             7093             6769             6768
            6925             6926             6481             6480             7093             7094             6770             6769
            6926             6927             6482             6481             7094             7095             6771             6770
            6927             6928             6483             6482             7095             7096             6772             6771
            6928             6929             6484             6483             7096             7097             6773             6772
            6929             6930             6485             6484             7097             7098             6774             6773
            6930             3103             3078             6485             7098             3102             3077             6774
            3028             3041             7099             6498              217              218             2027             2002
            3041              346             3285             7099              218                8              243             2027
            6498             7099             7100             6510             2002             2027             2026             2001
            7099             3285             3286             7100             2027              243              242             2026
            6510             7100             7101             6522             2001             2026             2025             2000
            7100             3286             3287             7101             2026              242              241             2025
            6522             7101             7102             6534             2000             2025             2024             1999
            7101             3287             3288             7102             2025              241              240             2024
            6534             7102             7103             6546             1999             2024             2023             1998
            7102             3288             3289             7103             2024              240              239             2023
            6546             7103             7104             6558             1998             2023             2022             1997
            7103             3289             3290             7104             2023              239              238             2022
            6558             7104             7105             6570             1997             2022             2021             1996
            7104             3290             3291             7105             2022              238              237             2021
            6570             7105             7106             6582             1996             2021             2020             1995
            7105             3291             3292             7106             2021              237              236             2020
            6582             7106             7107             6594             1995             2020             2019             1994
            7106             3292             3293             7107             2020              236              235             2019
            6594             7107             7108             6606             1994             2019             2018             1993
            7107             3293             3294             7108             2019              235              234             2018
            6606             7108             7109             6618             1993             2018             2017             1992
            7108             3294             3295             7109             2018              234              233             2017
            6618             7109             7110             6630             1992             2017             2016             1991
            7109             3295             3296             7110             2017              233              232             2016
            6630             7110             6931             6450             1991             2016             2015             1990
            7110             3296             3116             6931             2016              232              231             2015
            3027             3042             7111             6497             3028             3041             7099             6498
            3042              347             3297             7111             3041              346             3285             7099
            6497             7111             7112             6509             6498             7099             7100             6510
            7111             3297             3298             7112             7099             3285             3286             7100
            6509             7112             7113             6521             6510             7100             7101             6522
            7112             3298             3299             7113             7100             3286             3287             7101
            6521             7113             7114             6533             6522             7101             7102             6534
            7113             3299             3300             7114             7101             3287             3288             7102
            6533             7114             7115             6545             6534             7102             7103             6546
            7114             3300             3301             7115             7102             3288             3289             7103
            6545             7115             7116             6557             6546             7103             7104             6558
            7115             3301             3302             7116             7103             3289             3290             7104
            6557             7116             7117             6569             6558             7104             7105             6570
            7116             3302             3303             7117             7104             3290             3291             7105
            6569             7117             7118             6581             6570             7105             7106             6582
            7117             3303             3304             7118             7105             3291             3292             7106
            6581             7118             7119             6593             6582             7106             7107             6594
            7118             3304             3305             7119             7106             3292             3293             7107
            6593             7119             7120             6605             6594             7107             7108             6606
            7119             3305             3306             7120             7107             3293             3294             7108
            6605             7120             7121             6617             6606             7108             7109             6618
            7120             3306             3307             7121             7108             3294             3295             7109
            6617             7121             7122             6629             6618             7109             7110             6630
            7121             3307             3308             7122             7109             3295             3296             7110
            6629             7122             6932             6451             6630             7110             6931             6450
            7122             3308             3129             6932             7110             3296             3116             6931
            3026             3043             7123             6496             3027             3042             7111             6497
            3043              348             3309             7123             3042              347             3297             7111
            6496             7123             7124             6508             6497             7111             7112             6509
            7123             3309             3310             7124             7111             3297             3298             7112
            6508             7124             7125             6520             6509             7112             7113             6521
            7124             3310             3311             7125             7112             3298             3299             7113
            6520             7125             7126             6532             6521             7113             7114             6533
            7125             3311             3312             7126             7113             3299             3300             7114
            6532             7126             7127             6544             6533             7114             7115             6545
            7126             3312             3313             7127             7114             3300             3301             7115
            6544             7127             7128             6556             6545             7115             7116             6557
            7127             3313             3314             7128             7115             3301             3302             7116
            6556             7128             7129             6568             6557             7116             7117             6569
            7128             3314             3315             7129             7116             3302             3303             7117
            6568             7129             7130             6580             6569             7117             7118             6581
            7129             3315             3316             7130             7117             3303             3304             7118
            6580             7130             7131             6592             6581             7118             7119             6593
            7130             3316             3317             7131             7118             3304             3305             7119
            6592             7131             7132             6604             6593             7119             7120             6605
            7131             3317             3318             7132             7119             3305             3306             7120
            6604             7132             7133             6616             6605             7120             7121             6617
            7132             3318             3319             7133             7120             3306             3307             7121
            6616             7133             7134             6628             6617             7121             7122             6629
            7133             3319             3320             7134             7121             3307             3308             7122
            6628             7134             6933             6452             6629             7122             6932             6451
            7134             3320             3142             6933             7122             3308             3129             6932
            3025             3044             7135             6495             3026             3043             7123             6496
            3044              349             3321             7135             3043              348             3309             7123
            6495             7135             7136             6507             6496             7123             7124             6508
            7135             3321             3322             7136             7123             3309             3310             7124
            6507             7136             7137             6519             6508             7124             7125             6520
            7136             3322             3323             7137             7124             3310             3311             7125
            6519             7137             7138             6531             6520             7125             7126             6532
            7137             3323             3324             7138             7125             3311             3312             7126
            6531             7138             7139             6543             6532             7126             7127             6544
            7138             3324             3325             7139             7126             3312             3313             7127
            6543             7139             7140             6555             6544             7127             7128             6556
            7139             3325             3326             7140             7127             3313             3314             7128
            6555             7140             7141             6567             6556             7128             7129             6568
            7140             3326             3327             7141             7128             3314             3315             7129
            6567             7141             7142             6579             6568             7129             7130             6580
            7141             3327             3328             7142             7129             3315             3316             7130
            6579             7142             7143             6591             6580             7130             7131             6592
            7142             3328             3329             7143             7130             3316             3317             7131
            6591             7143             7144             6603             6592             7131             7132             6604
            7143             3329             3330             7144             7131             3317             3318             7132
            6603             7144             7145             6615             6604             7132             7133             6616
            7144             3330             3331             7145             7132             3318             3319             7133
            6615             7145             7146             6627             6616             7133             7134             6628
            7145             3331             3332             7146             7133             3319             3320             7134
            6627             7146             6934             6453             6628             7134             6933             6452
            7146             3332             3155             6934             7134             3320             3142             6933
            3024             3045             7147             6494             3025             3044             7135             6495
            3045              350             3333             7147             3044              349             3321             7135
            6494             7147             7148             6506             6495             7135             7136             6507
            7147             3333             3334             7148             7135             3321             3322             7136
            6506             7148             7149             6518             6507             7136             7137             6519
            7148             3334             3335             7149             7136             3322             3323             7137
            6518             7149             7150             6530             6519             7137             7138             6531
            7149             3335             3336             7150             7137             3323             3324             7138
            6530             7150             7151             6542             6531             7138             7139             6543
            7150             3336             3337             7151             7138             3324             3325             7139
            6542             7151             7152             6554             6543             7139             7140             6555
            7151             3337             3338             7152             7139             3325             3326             7140
            6554             7152             7153             6566             6555             7140             7141             6567
            7152             3338             3339             7153             7140             3326             3327             7141
            6566             7153             7154             6578             6567             7141             7142             6579
            7153             3339             3340             7154             7141             3327             3328             7142
            6578             7154             7155             6590             6579             7142             7143             6591
            7154             3340             3341             7155             7142             3328             3329             7143
            6590             7155             7156             6602             6591             7143             7144             6603
            7155             3341             3342             7156             7143             3329             3330             7144
            6602             7156             7157             6614             6603             7144             7145             6615
            7156             3342             3343             7157             7144             3330             3331             7145
            6614             7157             7158             6626             6615             7145             7146             6627
            7157             3343             3344             7158             7145             3331             3332             7146
            6626             7158             6935             6454             6627             7146             6934             6453
            7158             3344             3168             6935             7146             3332             3155             6934
            3023             3046             7159             6493             3024             3045             7147             6494
            3046              351             3345             7159             3045              350             3333             7147
            6493             7159             7160             6505             6494             7147             7148             6506
            7159             3345             3346             7160             7147             3333             3334             7148
            6505             7160             7161             6517             6506             7148             7149             6518
            7160             3346             3347             7161             7148             3334             3335             7149
            6517             7161             7162             6529             6518             7149             7150             6530
            7161             3347             3348             7162             7149             3335             3336             7150
            6529             7162             7163             6541             6530             7150             7151             6542
            7162             3348             3349             7163             7150             3336             3337             7151
            6541             7163             7164             6553             6542             7151             7152             6554
            7163             3349             3350             7164             7151             3337             3338             7152
            6553             7164             7165             6565             6554             7152             7153             6566
            7164             3350             3351             7165             7152             3338             3339             7153
            6565             7165             7166             6577             6566             7153             7154             6578
            7165             3351             3352             7166             7153             3339             3340             7154
            6577             7166             7167             6589             6578             7154             7155             6590
            7166             3352             3353             7167             7154             3340             3341             7155
            6589             7167             7168             6601             6590             7155             7156             6602
            7167             3353             3354             7168             7155             3341             3342             7156
            6601             7168             7169             6613             6602             7156             7157             6614
            7168             3354             3355             7169             7156             3342             3343             7157
            6613             7169             7170             6625             6614             7157             7158             6626
            7169             3355             3356             7170             7157             3343             3344             7158
            6625             7170             6936             6455             6626             7158             6935             6454
            7170             3356             3181             6936             7158             3344             3168             6935
            3022             3047             7171             6492             3023             3046             7159             6493
            3047              352             3357             7171             3046              351             3345             7159
            6492             7171             7172             6504             6493             7159             7160             6505
            7171             3357             3358             7172             7159             3345             3346             7160
            6504             7172             7173             6516             6505             7160             7161             6517
            7172             3358             3359             7173             7160             3346             3347             7161
            6516             7173             7174             6528             6517             7161             7162             6529
            7173             3359             3360             7174             7161             3347             3348             7162
            6528             7174             7175             6540             6529             7162             7163             6541
            7174             3360             3361             7175             7162             3348             3349             7163
            6540             7175             7176             6552             6541             7163             7164             6553
            7175             3361             3362             7176             7163             3349             3350             7164
            6552             7176             7177             6564             6553             7164             7165             6565
            7176             3362             3363             7177             7164             3350             3351             7165
            6564             7177             7178             6576             6565             7165             7166             6577
            7177             3363             3364             7178             7165             3351             3352             7166
            6576             7178             7179             6588             6577             7166             7167             6589
            7178             3364             3365             7179             7166             3352             3353             7167
            6588             7179             7180             6600             6589             7167             7168             6601
            7179             3365             3366             7180             7167             3353             3354             7168
            6600             7180             7181             6612             6601             7168             7169             6613
            7180             3366             3367             7181             7168             3354             3355             7169
            6612             7181             7182             6624             6613             7169             7170             6625
            7181             3367             3368             7182             7169             3355             3356             7170
            6624             7182             6937             6456             6625             7170             6936             6455
            7182             3368             3194             6937             7170             3356             3181             6936
            3021             3048             7183             6491             3022             3047             7171             6492
            3048              353             3369             7183             3047              352             3357             7171
            6491             7183             7184             6503             6492             7171             7172             6504
            7183             3369             3370             7184             7171             3357             3358             7172
            6503             7184             7185             6515             6504             7172             7173             6516
            7184             3370             3371             7185             7172             3358             3359             7173
            6515             7185             7186             6527             6516             7173             7174             6528
            7185             3371             3372             7186             7173             3359             3360             7174
            6527             7186             7187             6539             6528             7174             7175             6540
            7186             3372             3373             7187             7174             3360             3361             7175
            6539             7187             7188             6551             6540             7175             7176             6552
            7187             3373             3374             7188             7175             3361             3362             7176
            6551             7188             7189             6563             6552             7176             7177             6564
            7188             3374             3375             7189             7176             3362             3363             7177
            6563             7189             7190             6575             6564             7177             7178             6576
            7189             3375             3376             7190             7177             3363             3364             7178
            6575             7190             7191             6587             6576             7178             7179             6588
            7190             3376             3377             7191             7178             3364             3365             7179
            6587             7191             7192             6599             6588             7179             7180             6600
            7191             3377             3378             7192             7179             3365             3366             7180
            6599             7192             7193             6611             6600             7180             7181             6612
            7192             3378             3379             7193             7180             3366             3367             7181
            6611             7193             7194             6623             6612             7181             7182             6624
            7193             3379             3380             7194             7181             3367             3368             7182
            6623             7194             6938             6457             6624             7182             6937             6456
            7194             3380             3207             6938             7182             3368             3194             6937
            3020             3049             7195             6490             3021             3048             7183             6491
            3049              354             3381             7195             3048              353             3369             7183
            6490             7195             7196             6502             6491             7183             7184             6503
            7195             3381             3382             7196             7183             3369             3370             7184
            6502             7196             7197             6514             6503             7184             7185             6515
            7196             3382             3383             7197             7184             3370             3371             7185
            6514             7197             7198             6526             6515             7185             7186             6527
            7197             3383             3384             7198             7185             3371             3372             7186
            6526             7198             7199             6538             6527             7186             7187             6539
            7198             3384             3385             7199             7186             3372             3373             7187
            6538             7199             7200             6550             6539             7187             7188             6551
            7199             3385             3386             7200             7187             3373             3374             7188
            6550             7200             7201             6562             6551             7188             7189             6563
            7200             3386             3387             7201             7188             3374             3375             7189
            6562             7201             7202             6574             6563             7189             7190             6575
            7201             3387             3388             7202             7189             3375             3376             7190
            6574             7202             7203             6586             6575             7190             7191             6587
            7202             3388             3389             7203             7190             3376             3377             7191
            6586             7203             7204             6598             6587             7191             7192             6599
            7203             3389             3390             7204             7191             3377             3378             7192
            6598             7204             7205             6610             6599             7192             7193             6611
            7204             3390             3391             7205             7192             3378             3379             7193
            6610             7205             7206             6622             6611             7193             7194             6623
            7205             3391             3392             7206             7193             3379             3380             7194
            6622             7206             6939             6458             6623             7194             6938             6457
            7206             3392             3220             6939             7194             3380             3207             6938
            3019             3050             7207             6489             3020             3049             7195             6490
            3050              355             3393             7207             3049              354             3381             7195
            6489             7207             7208             6501             6490             7195             7196             6502
            7207             3393             3394             7208             7195             3381             3382             7196
            6501             7208             7209             6513             6502             7196             7197             6514
            7208             3394             3395             7209             7196             3382             3383             7197
            6513             7209             7210             6525             6514             7197             7198             6526
            7209             3395             3396             7210             7197             3383             3384             7198
            6525             7210             7211             6537             6526             7198             7199             6538
            7210             3396             3397             7211             7198             3384             3385             7199
            6537             7211             7212             6549             6538             7199             7200             6550
            7211             3397             3398             7212             7199             3385             3386             7200
            6549             7212             7213             6561             6550             7200             7201             6562
            7212             3398             3399             7213             7200             3386             3387             7201
            6561             7213             7214             6573             6562             7201             7202             6574
            7213             3399             3400             7214             7201             3387             3388             7202
            6573             7214             7215             6585             6574             7202             7203             6586
            7214             3400             3401             7215             7202             3388             3389             7203
            6585             7215             7216             6597             6586             7203             7204             6598
            7215             3401             3402             7216             7203             3389             3390             7204
            6597             7216             7217             6609             6598             7204             7205             6610
            7216             3402             3403             7217             7204             3390             3391             7205
            6609             7217             7218             6621             6610             7205             7206             6622
            7217             3403             3404             7218             7205             3391             3392             7206
            6621             7218             6940             6459             6622             7206             6939             6458
            7218             3404             3233             6940             7206             3392             3220             6939
            3018             3051             7219             6488             3019             3050             7207             6489
            3051              356             3405             7219             3050              355             3393             7207
            6488             7219             7220             6500             6489             7207             7208             6501
            7219             3405             3406             7220             7207             3393             3394             7208
            6500             7220             7221             6512             6501             7208             7209             6513
            7220             3406             3407             7221             7208             3394             3395             7209
            6512             7221             7222             6524             6513             7209             7210             6525
            7221             3407             3408             7222             7209             3395             3396             7210
            6524             7222             7223             6536             6525             7210             7211             6537
            7222             3408             3409             7223             7210             3396             3397             7211
            6536             7223             7224             6548             6537             7211             7212             6549
            7223             3409             3410             7224             7211             3397             3398             7212
            6548             7224             7225             6560             6549             7212             7213             6561
            7224             3410             3411             7225             7212             3398             3399             7213
            6560             7225             7226             6572             6561             7213             7214             6573
            7225             3411             3412             7226             7213             3399             3400             7214
            6572             7226             7227             6584             6573             7214             7215             6585
            7226             3412             3413             7227             7214             3400             3401             7215
            6584             7227             7228             6596             6585             7215             7216             6597
            7227             3413             3414             7228             7215             3401             3402             7216
            6596             7228             7229             6608             6597             7216             7217             6609
            7228             3414             3415             7229             7216             3402             3403             7217
            6608             7229             7230             6620             6609             7217             7218             6621
            7229             3415             3416             7230             7217             3403             3404             7218
            6620             7230             6941             6460             6621             7218             6940             6459
            7230             3416             3246             6941             7218             3404             3233             6940
            3017             3052             7231             6487             3018             3051             7219             6488
            3052              357             3417             7231             3051              356             3405             7219
            6487             7231             7232             6499             6488             7219             7220             6500
            7231             3417             3418             7232             7219             3405             3406             7220
            6499             7232             7233             6511             6500             7220             7221             6512
            7232             3418             3419             7233             7220             3406             3407             7221
            6511             7233             7234             6523             6512             7221             7222             6524
            7233             3419             3420             7234             7221             3407             3408             7222
            6523             7234             7235             6535             6524             7222             7223             6536
            7234             3420             3421             7235             7222             3408             3409             7223
            6535             7235             7236             6547             6536             7223             7224             6548
            7235             3421             3422             7236             7223             3409             3410             7224
            6547             7236             7237             6559             6548             7224             7225             6560
            7236             3422             3423             7237             7224             3410             3411             7225
            6559             7237             7238             6571             6560             7225             7226             6572
            7237             3423             3424             7238             7225             3411             3412             7226
            6571             7238             7239             6583             6572             7226             7227             6584
            7238             3424             3425             7239             7226             3412             3413             7227
            6583             7239             7240             6595             6584             7227             7228             6596
            7239             3425             3426             7240             7227             3413             3414             7228
            6595             7240             7241             6607             6596             7228             7229             6608
            7240             3426             3427             7241             7228             3414             3415             7229
            6607             7241             7242             6619             6608             7229             7230             6620
            7241             3427             3428             7242             7229             3415             3416             7230
            6619             7242             6942             6461             6620             7230             6941             6460
            7242             3428             3259             6942             7230             3416             3246             6941
            3016             3053             6943             6473             3017             3052             7231             6487
            3053              358             3429             6943             3052              357             3417             7231
            6473             6943             6944             6472             6487             7231             7232             6499
            6943             3429             3430             6944             7231             3417             3418             7232
            6472             6944             6945             6471             6499             7232             7233             6511
            6944             3430             3431             6945             7232             3418             3419             7233
            6471             6945             6946             6470             6511             7233             7234             6523
            6945             3431             3432             6946             7233             3419             3420             7234
            6470             6946             6947             6469             6523             7234             7235             6535
            6946             3432             3433             6947             7234             3420             3421             7235
            6469             6947             6948             6468             6535             7235             7236             6547
            6947             3433             3434             6948             7235             3421             3422             7236
            6468             6948             6949             6467             6547             7236             7237             6559
            6948             3434             3435             6949             7236             3422             3423             7237
            6467             6949             6950             6466             6559             7237             7238             6571
            6949             3435             3436             6950             7237             3423             3424             7238
            6466             6950             6951             6465             6571             7238             7239             6583
            6950             3436             3437             6951             7238             3424             3425             7239
            6465             6951             6952             6464             6583             7239             7240             6595
            6951             3437             3438             6952             7239             3425             3426             7240
            6464             6952             6953             6463             6595             7240             7241             6607
            6952             3438             3439             6953             7240             3426             3427             7241
            6463             6953             6954             6462             6607             7241             7242             6619
            6953             3439             3440             6954             7241             3427             3428             7242
            6462             6954             6486             6449             6619             7242             6942             6461
            6954             3440             3272             6486             7242             3428             3259             6942
            3284             3441             7243             6930              333              334             3104             3103
            3441             3442             7244             7243              334              335             3105             3104
            3442             3443             7245             7244              335              336             3106             3105
            3443             3444             7246             7245              336              337             3107             3106
            3444             3445             7247             7246              337              338             3108             3107
            3445             3446             7248             7247              338              339             3109             3108
            3446             3447             7249             7248              339              340             3110             3109
            3447             3448             7250             7249              340              341             3111             3110
            3448             3449             7251             7250              341              342             3112             3111
            3449             3450             7252             7251              342              343             3113             3112
            3450             3451             7253             7252              343              344             3114             3113
            3451             3452             7254             7253              344              345             3115             3114
            3452              370             3054             7254              345               10              320             3115
            6930             7243             6775             6485             3103             3104             3079             3078
            7243             7244             6776             6775             3104             3105             3080             3079
            7244             7245             6777             6776             3105             3106             3081             3080
            7245             7246             6778             6777             3106             3107             3082             3081
            7246             7247             6779             6778             3107             3108             3083             3082
            7247             7248             6780             6779             3108             3109             3084             3083
            7248             7249             6781             6780             3109             3110             3085             3084
            7249             7250             6782             6781             3110             3111             3086             3085
            7250             7251             6783             6782             3111             3112             3087             3086
            7251             7252             6784             6783             3112             3113             3088             3087
            7252             7253             6785             6784             3113             3114             3089             3088
            7253             7254             6786             6785             3114             3115             3090             3089
            7254             3054             3029             6786             3115              320              319             3090
            3283             3453             7255             6929             3284             3441             7243             6930
            3453             3454             7256             7255             3441             3442             7244             7243
            3454             3455             7257             7256             3442             3443             7245             7244
            3455             3456             7258             7257             3443             3444             7246             7245
            3456             3457             7259             7258             3444             3445             7247             7246
            3457             3458             7260             7259             3445             3446             7248             7247
            3458             3459             7261             7260             3446             3447             7249             7248
            3459             3460             7262             7261             3447             3448             7250             7249
            3460             3461             7263             7262             3448             3449             7251             7250
            3461             3462             7264             7263             3449             3450             7252             7251
            3462             3463             7265             7264             3450             3451             7253             7252
            3463             3464             7266             7265             3451             3452             7254             7253
            3464              369             3055             7266             3452              370             3054             7254
            6929             7255             6787             6484             6930             7243             6775             6485
            7255             7256             6788             6787             7243             7244             6776             6775
            7256             7257             6789             6788             7244             7245             6777             6776
            7257             7258             6790             6789             7245             7246             6778             6777
            7258             7259             6791             6790             7246             7247             6779             6778
            7259             7260             6792             6791             7247             7248             6780             6779
            7260             7261             6793             6792             7248             7249             6781             6780
            7261             7262             6794             6793             7249             7250             6782             6781
            7262             7263             6795             6794             7250             7251             6783             6782
            7263             7264             6796             6795             7251             7252             6784             6783
            7264             7265             6797             6796             7252             7253             6785             6784
            7265             7266             6798             6797             7253             7254             6786             6785
            7266             3055             3030             6798             7254             3054             3029             6786
            3282             3465             7267             6928             3283             3453             7255             6929
            3465             3466             7268             7267             3453             3454             7256             7255
            3466             3467             7269             7268             3454             3455             7257             7256
            3467             3468             7270             7269             3455             3456             7258             7257
            3468             3469             7271             7270             3456             3457             7259             7258
            3469             3470             7272             7271             3457             3458             7260             7259
            3470             3471             7273             7272             3458             3459             7261             7260
            3471             3472             7274             7273             3459             3460             7262             7261
            3472             3473             7275             7274             3460             3461             7263             7262
            3473             3474             7276             7275             3461             3462             7264             7263
            3474             3475             7277             7276             3462             3463             7265             7264
            3475             3476             7278             7277             3463             3464             7266             7265
            3476              368             3056             7278             3464              369             3055             7266
            6928             7267             6799             6483             6929             7255             6787             6484
            7267             7268             6800             6799             7255             7256             6788             6787
            7268             7269             6801             6800             7256             7257             6789             6788
            7269             7270             6802             6801             7257             7258             6790             6789
            7270             7271             6803             6802             7258             7259             6791             6790
            7271             7272             6804             6803             7259             7260             6792             6791
            7272             7273             6805             6804             7260             7261             6793             6792
            7273             7274             6806             6805             7261             7262             6794             6793
            7274             7275             6807             6806             7262             7263             6795             6794
            7275             7276             6808             6807             7263             7264             6796             6795
            7276             7277             6809             6808             7264             7265             6797             6796
            7277             7278             6810             6809             7265             7266             6798             6797
            7278             3056             3031             6810             7266             3055             3030             6798
            3281             3477             7279             6927             3282             3465             7267             6928
            3477             3478             7280             7279             3465             3466             7268             7267
            3478             3479             7281             7280             3466             3467             7269             7268
            3479             3480             7282             7281             3467             3468             7270             7269
            3480             3481             7283             7282             3468             3469             7271             7270
            3481             3482             7284             7283             3469             3470             7272             7271
            3482             3483             7285             7284             3470             3471             7273             7272
            3483             3484             7286             7285             3471             3472             7274             7273
            3484             3485             7287             7286             3472             3473             7275             7274
            3485             3486             7288             7287             3473             3474             7276             7275
            3486             3487             7289             7288             3474             3475             7277             7276
            3487             3488             7290             7289             3475             3476             7278             7277
            3488              367             3057             7290             3476              368             3056             7278
            6927             7279             6811             6482             6928             7267             6799             6483
            7279             7280             6812             6811             7267             7268             6800             6799
            7280             7281             6813             6812             7268             7269             6801             6800
            7281             7282             6814             6813             7269             7270             6802             6801
            7282             7283             6815             6814             7270             7271             6803             6802
            7283             7284             6816             6815             7271             7272             6804             6803
            7284             7285             6817             6816             7272             7273             6805             6804
            7285             7286             6818             6817             7273             7274             6806             6805
            7286             7287             6819             6818             7274             7275             6807             6806
            7287             7288             6820             6819             7275             7276             6808             6807
            7288             7289             6821             6820             7276             7277             6809             6808
            7289             7290             6822             6821             7277             7278             6810             6809
            7290             3057             3032             6822             7278             3056             3031             6810
            3280             3489             7291             6926             3281             3477             7279             6927
            3489             3490             7292             7291             3477             3478             7280             7279
            3490             3491             7293             7292             3478             3479             7281             7280
            3491             3492             7294             7293             3479             3480             7282             7281
            3492             3493             7295             7294             3480             3481             7283             7282
            3493             3494             7296             7295             3481             3482             7284             7283
            3494             3495             7297             7296             3482             3483             7285             7284
            3495             3496             7298             7297             3483             3484             7286             7285
            3496             3497             7299             7298             3484             3485             7287             7286
            3497             3498             7300             7299             3485             3486             7288             7287
            3498             3499             7301             7300             3486             3487             7289             7288
            3499             3500             7302             7301             3487             3488             7290             7289
            3500              366             3058             7302             3488              367             3057             7290
            6926             7291             6823             6481             6927             7279             6811             6482
            7291             7292             6824             6823             7279             7280             6812             6811
            7292             7293             6825             6824             7280             7281             6813             6812
            7293             7294             6826             6825             7281             7282             6814             6813
            7294             7295             6827             6826             7282             7283             6815             6814
            7295             7296             6828             6827             7283             7284             6816             6815
            7296             7297             6829             6828             7284             7285             6817             6816
            7297             7298             6830             6829             7285             7286             6818             6817
            7298             7299             6831             6830             7286             7287             6819             6818
            7299             7300             6832             6831             7287             7288             6820             6819
            7300             7301             6833             6832             7288             7289             6821             6820
            7301             7302             6834             6833             7289             7290             6822             6821
            7302             3058             3033             6834             7290             3057             3032             6822
            3279             3501             7303             6925             3280             3489             7291             6926
            3501             3502             7304             7303             3489             3490             7292             7291
            3502             3503             7305             7304             3490             3491             7293             7292
            3503             3504             7306             7305             3491             3492             7294             7293
            3504             3505             7307             7306             3492             3493             7295             7294
            3505             3506             7308             7307             3493             3494             7296             7295
            3506             3507             7309             7308             3494             3495             7297             7296
            3507             3508             7310             7309             3495             3496             7298             7297
            3508             3509             7311             7310             3496             3497             7299             7298
            3509             3510             7312             7311             3497             3498             7300             7299
            3510             3511             7313             7312             3498             3499             7301             7300
            3511             3512             7314             7313             3499             3500             7302             7301
            3512              365             3059             7314             3500              366             3058             7302
            6925             7303             6835             6480             6926             7291             6823             6481
            7303             7304             6836             6835             7291             7292             6824             6823
            7304             7305             6837             6836             7292             7293             6825             6824
            7305             7306             6838             6837             7293             7294             6826             6825
            7306             7307             6839             6838             7294             7295             6827             6826
            7307             7308             6840             6839             7295             7296             6828             6827
            7308             7309             6841             6840             7296             7297             6829             6828
            7309             7310             6842             6841             7297             7298             6830             6829
            7310             7311             6843             6842             7298             7299             6831             6830
            7311             7312             6844             6843             7299             7300             6832             6831
            7312             7313             6845             6844             7300             7301             6833             6832
            7313             7314             6846             6845             7301             7302             6834             6833
            7314             3059             3034             6846             7302             3058             3033             6834
            3278             3513             7315             6924             3279             3501             7303             6925
            3513             3514             7316             7315             3501             3502             7304             7303
            3514             3515             7317             7316             3502             3503             7305             7304
            3515             3516             7318             7317             3503             3504             7306             7305
            3516             3517             7319             7318             3504             3505             7307             7306
            3517             3518             7320             7319             3505             3506             7308             7307
            3518             3519             7321             7320             3506             3507             7309             7308
            3519             3520             7322             7321             3507             3508             7310             7309
            3520             3521             7323             7322             3508             3509             7311             7310
            3521             3522             7324             7323             3509             3510             7312             7311
            3522             3523             7325             7324             3510             3511             7313             7312
            3523             3524             7326             7325             3511             3512             7314             7313
            3524              364             3060             7326             3512              365             3059             7314
            6924             7315             6847             6479             6925             7303             6835             6480
            7315             7316             6848             6847             7303             7304             6836             6835
            7316             7317             6849             6848             7304             7305             6837             6836
            7317             7318             6850             6849             7305             7306             6838             6837
            7318             7319             6851             6850             7306             7307             6839             6838
            7319             7320             6852             6851             7307             7308             6840             6839
            7320             7321             6853             6852             7308             7309             6841             6840
            7321             7322             6854             6853             7309             7310             6842             6841
            7322             7323             6855             6854             7310             7311             6843             6842
            7323             7324             6856             6855             7311             7312             6844             6843
            7324             7325             6857             6856             7312             7313             6845             6844
            7325             7326             6858             6857             7313             7314             6846             6845
            7326             3060             3035             6858             7314             3059             3034             6846
            3277             3525             7327             6923             3278             3513             7315             6924
            3525             3526             7328             7327             3513             3514             7316             7315
            3526             3527             7329             7328             3514             3515             7317             7316
            3527             3528             7330             7329             3515             3516             7318             7317
            3528             3529             7331             7330             3516             3517             7319             7318
            3529             3530             7332             7331             3517             3518             7320             7319
            3530             3531             7333             7332             3518             3519             7321             7320
            3531             3532             7334             7333             3519             3520             7322             7321
            3532             3533             7335             7334             3520             3521             7323             7322
            3533             3534             7336             7335             3521             3522             7324             7323
            3534             3535             7337             7336             3522             3523             7325             7324
            3535             3536             7338             7337             3523             3524             7326             7325
            3536              363             3061             7338             3524              364             3060             7326
            6923             7327             6859             6478             6924             7315             6847             6479
            7327             7328             6860             6859             7315             7316             6848             6847
            7328             7329             6861             6860             7316             7317             6849             6848
            7329             7330             6862             6861             7317             7318             6850             6849
            7330             7331             6863             6862             7318             7319             6851             6850
            7331             7332             6864             6863             7319             7320             6852             6851
            7332             7333             6865             6864             7320             7321             6853             6852
            7333             7334             6866             6865             7321             7322             6854             6853
            7334             7335             6867             6866             7322             7323             6855             6854
            7335             7336             6868             6867             7323             7324             6856             6855
            7336             7337             6869             6868             7324             7325             6857             6856
            7337             7338             6870             6869             7325             7326             6858             6857
            7338             3061             3036             6870             7326             3060             3035             6858
            3276             3537             7339             6922             3277             3525             7327             6923
            3537             3538             7340             7339             3525             3526             7328             7327
            3538             3539             7341             7340             3526             3527             7329             7328
            3539             3540             7342             7341             3527             3528             7330             7329
            3540             3541             7343             7342             3528             3529             7331             7330
            3541             3542             7344             7343             3529             3530             7332             7331
            3542             3543             7345             7344             3530             3531             7333             7332
            3543             3544             7346             7345             3531             3532             7334             7333
            3544             3545             7347             7346             3532             3533             7335             7334
            3545             3546             7348             7347             3533             3534             7336             7335
            3546             3547             7349             7348             3534             3535             7337             7336
            3547             3548             7350             7349             3535             3536             7338             7337
            3548              362             3062             7350             3536              363             3061             7338
            6922             7339             6871             6477             6923             7327             6859             6478
            7339             7340             6872             6871             7327             7328             6860             6859
            7340             7341             6873             6872             7328             7329             6861             6860
            7341             7342             6874             6873             7329             7330             6862             6861
            7342             7343             6875             6874             7330             7331             6863             6862
            7343             7344             6876             6875             7331             7332             6864             6863
            7344             7345             6877             6876             7332             7333             6865             6864
            7345             7346             6878             6877             7333             7334             6866             6865
            7346             7347             6879             6878             7334             7335             6867             6866
            7347             7348             6880             6879             7335             7336             6868             6867
            7348             7349             6881             6880             7336             7337             6869             6868
            7349             7350             6882             6881             7337             7338             6870             6869
            7350             3062             3037             6882             7338             3061             3036             6870
            3275             3549             7351             6921             3276             3537             7339             6922
            3549             3550             7352             7351             3537             3538             7340             7339
            3550             3551             7353             7352             3538             3539             7341             7340
            3551             3552             7354             7353             3539             3540             7342             7341
            3552             3553             7355             7354             3540             3541             7343             7342
            3553             3554             7356             7355             3541             3542             7344             7343
            3554             3555             7357             7356             3542             3543             7345             7344
            3555             3556             7358             7357             3543             3544             7346             7345
            3556             3557             7359             7358             3544             3545             7347             7346
            3557             3558             7360             7359             3545             3546             7348             7347
            3558             3559             7361             7360             3546             3547             7349             7348
            3559             3560             7362             7361             3547             3548             7350             7349
            3560              361             3063             7362             3548              362             3062             7350
            6921             7351             6883             6476             6922             7339             6871             6477
            7351             7352             6884             6883             7339             7340             6872             6871
            7352             7353             6885             6884             7340             7341             6873             6872
            7353             7354             6886             6885             7341             7342             6874             6873
            7354             7355             6887             6886             7342             7343             6875             6874
            7355             7356             6888             6887             7343             7344             6876             6875
            7356             7357             6889             6888             7344             7345             6877             6876
            7357             7358             6890             6889             7345             7346             6878             6877
            7358             7359             6891             6890             7346             7347             6879             6878
            7359             7360             6892             6891             7347             7348             6880             6879
            7360             7361             6893             6892             7348             7349             6881             6880
            7361             7362             6894             6893             7349             7350             6882             6881
            7362             3063             3038             6894             7350             3062             3037             6882
            3274             3561             7363             6920             3275             3549             7351             6921
            3561             3562             7364             7363             3549             3550             7352             7351
            3562             3563             7365             7364             3550             3551             7353             7352
            3563             3564             7366             7365             3551             3552             7354             7353
            3564             3565             7367             7366             3552             3553             7355             7354
            3565             3566             7368             7367             3553             3554             7356             7355
            3566             3567             7369             7368             3554             3555             7357             7356
            3567             3568             7370             7369             3555             3556             7358             7357
            3568             3569             7371             7370             3556             3557             7359             7358
            3569             3570             7372             7371             3557             3558             7360             7359
            3570             3571             7373             7372             3558             3559             7361             7360
            3571             3572             7374             7373             3559             3560             7362             7361
            3572              360             3064             7374             3560              361             3063             7362
            6920             7363             6895             6475             6921             7351             6883             6476
            7363             7364             6896             6895             7351             7352             6884             6883
            7364             7365             6897             6896             7352             7353             6885             6884
            7365             7366             6898             6897             7353             7354             6886             6885
            7366             7367             6899             6898             7354             7355             6887             6886
            7367             7368             6900             6899             7355             7356             6888             6887
            7368             7369             6901             6900             7356             7357             6889             6888
            7369             7370             6902             6901             7357             7358             6890             6889
            7370             7371             6903             6902             7358             7359             6891             6890
            7371             7372             6904             6903             7359             7360             6892             6891
            7372             7373             6905             6904             7360             7361             6893             6892
            7373             7374             6906             6905             7361             7362             6894             6893
            7374             3064             3039             6906             7362             3063             3038             6894
            3273             3573             7375             6919             3274             3561             7363             6920
            3573             3574             7376             7375             3561             3562             7364             7363
            3574             3575             7377             7376             3562             3563             7365             7364
            3575             3576             7378             7377             3563             3564             7366             7365
            3576             3577             7379             7378             3564             3565             7367             7366
            3577             3578             7380             7379             3565             3566             7368             7367
            3578             3579             7381             7380             3566             3567             7369             7368
            3579             3580             7382             7381             3567             3568             7370             7369
            3580             3581             7383             7382             3568             3569             7371             7370
            3581             3582             7384             7383             3569             3570             7372             7371
            3582             3583             7385             7384             3570             3571             7373             7372
            3583             3584             7386             7385             3571             3572             7374             7373
            3584              359             3065             7386             3572              360             3064             7374
            6919             7375             6907             6474             6920             7363             6895             6475
            7375             7376             6908             6907             7363             7364             6896             6895
            7376             7377             6909             6908             7364             7365             6897             6896
            7377             7378             6910             6909             7365             7366             6898             6897
            7378             7379             6911             6910             7366             7367             6899             6898
            7379             7380             6912             6911             7367             7368             6900             6899
            7380             7381             6913             6912             7368             7369             6901             6900
            7381             7382             6914             6913             7369             7370             6902             6901
            7382             7383             6915             6914             7370             7371             6903             6902
            7383             7384             6916             6915             7371             7372             6904             6903
            7384             7385             6917             6916             7372             7373             6905             6904
            7385             7386             6918             6917             7373             7374             6906             6905
            7386             3065             3040             6918             7374             3064             3039             6906
            3272             3440             6954             6486             3273             3573             7375             6919
            3440             3439             6953             6954             3573             3574             7376             7375
            3439             3438             6952             6953             3574             3575             7377             7376
            3438             3437             6951             6952             3575             3576             7378             7377
            3437             3436             6950             6951             3576             3577             7379             7378
            3436             3435             6949             6950             3577             3578             7380             7379
            3435             3434             6948             6949             3578             3579             7381             7380
            3434             3433             6947             6948             3579             3580             7382             7381
            3433             3432             6946             6947             3580             3581             7383             7382
            3432             3431             6945             6946             3581             3582             7384             7383
            3431             3430             6944             6945             3582             3583             7385             7384
            3430             3429             6943             6944             3583             3584             7386             7385
            3429              358             3053             6943             3584              359             3065             7386
            6486             6954             6462             6449             6919             7375             6907             6474
            6954             6953             6463             6462             7375             7376             6908             6907
            6953             6952             6464             6463             7376             7377             6909             6908
            6952             6951             6465             6464             7377             7378             6910             6909
            6951             6950             6466             6465             7378             7379             6911             6910
            6950             6949             6467             6466             7379             7380             6912             6911
            6949             6948             6468             6467             7380             7381             6913             6912
            6948             6947             6469             6468             7381             7382             6914             6913
            6947             6946             6470             6469             7382             7383             6915             6914
            6946             6945             6471             6470             7383             7384             6916             6915
            6945             6944             6472             6471             7384             7385             6917             6916
            6944             6943             6473             6472             7385             7386             6918             6917
            6943             3053             3016             6473             7386             3065             3040             6918
            3078             3077             7425             7411              306              305             3586             3585
            3077             3076             7426             7425              305              304             3587             3586
            3076             3075             7427             7426              304              303             3588             3587
            3075             3074             7428             7427              303              302             3589             3588
            3074             3073             7429             7428              302              301             3590             3589
            3073             3072             7430             7429              301              300             3591             3590
            3072             3071             7431             7430              300              299             3592             3591
            3071             3070             7432             7431              299              298             3593             3592
            3070             3069             7433             7432              298              297             3594             3593
            3069             3068             7434             7433              297              296             3595             3594
            3068             3067             7435             7434              296              295             3596             3595
            3067             3066             7436             7435              295              294             3597             3596
            3066               89              914             7436              294                2               60             3597
            7411             7425             7437             7410             3585             3586             3599             3598
            7425             7426             7438             7437             3586             3587             3600             3599
            7426             7427             7439             7438             3587             3588             3601             3600
            7427             7428             7440             7439             3588             3589             3602             3601
            7428             7429             7441             7440             3589             3590             3603             3602
            7429             7430             7442             7441             3590             3591             3604             3603
            7430             7431             7443             7442             3591             3592             3605             3604
            7431             7432             7444             7443             3592             3593             3606             3605
            7432             7433             7445             7444             3593             3594             3607             3606
            7433             7434             7446             7445             3594             3595             3608             3607
            7434             7435             7447             7446             3595             3596             3609             3608
            7435             7436             7448             7447             3596             3597             3610             3609
            7436              914              913             7448             3597               60               59             3610
            7410             7437             7449             7409             3598             3599             3612             3611
            7437             7438             7450             7449             3599             3600             3613             3612
            7438             7439             7451             7450             3600             3601             3614             3613
            7439             7440             7452             7451             3601             3602             3615             3614
            7440             7441             7453             7452             3602             3603             3616             3615
            7441             7442             7454             7453             3603             3604             3617             3616
            7442             7443             7455             7454             3604             3605             3618             3617
            7443             7444             7456             7455             3605             3606             3619             3618
            7444             7445             7457             7456             3606             3607             3620             3619
            7445             7446             7458             7457             3607             3608             3621             3620
            7446             7447             7459             7458             3608             3609             3622             3621
            7447             7448             7460             7459             3609             3610             3623             3622
            7448              913              912             7460             3610               59               58             3623
            7409             7449             7461             7408             3611             3612             3625             3624
            7449             7450             7462             7461             3612             3613             3626             3625
            7450             7451             7463             7462             3613             3614             3627             3626
            7451             7452             7464             7463             3614             3615             3628             3627
            7452             7453             7465             7464             3615             3616             3629             3628
            7453             7454             7466             7465             3616             3617             3630             3629
            7454             7455             7467             7466             3617             3618             3631             3630
            7455             7456             7468             7467             3618             3619             3632             3631
            7456             7457             7469             7468             3619             3620             3633             3632
            7457             7458             7470             7469             3620             3621             3634             3633
            7458             7459             7471             7470             3621             3622             3635             3634
            7459             7460             7472             7471             3622             3623             3636             3635
            7460              912              911             7472             3623               58               57             3636
            7408             7461             7473             7407             3624             3625             3638             3637
            7461             7462             7474             7473             3625             3626             3639             3638
            7462             7463             7475             7474             3626             3627             3640             3639
            7463             7464             7476             7475             3627             3628             3641             3640
            7464             7465             7477             7476             3628             3629             3642             3641
            7465             7466             7478             7477             3629             3630             3643             3642
            7466             7467             7479             7478             3630             3631             3644             3643
            7467             7468             7480             7479             3631             3632             3645             3644
            7468             7469             7481             7480             3632             3633             3646             3645
            7469             7470             7482             7481             3633             3634             3647             3646
            7470             7471             7483             7482             3634             3635             3648             3647
            7471             7472             7484             7483             3635             3636             3649             3648
            7472              911              910             7484             3636               57               56             3649
            7407             7473             7485             7406             3637             3638             3651             3650
            7473             7474             7486             7485             3638             3639             3652             3651
            7474             7475             7487             7486             3639             3640             3653             3652
            7475             7476             7488             7487             3640             3641             3654             3653
            7476             7477             7489             7488             3641             3642             3655             3654
            7477             7478             7490             7489             3642             3643             3656             3655
            7478             7479             7491             7490             3643             3644             3657             3656
            7479             7480             7492             7491             3644             3645             3658             3657
            7480             7481             7493             7492             3645             3646             3659             3658
            7481             7482             7494             7493             3646             3647             3660             3659
            7482             7483             7495             7494             3647             3648             3661             3660
            7483             7484             7496             7495             3648             3649             3662             3661
            7484              910              909             7496             3649               56               55             3662
            7406             7485             7497             7405             3650             3651             3664             3663
            7485             7486             7498             7497             3651             3652             3665             3664
            7486             7487             7499             7498             3652             3653             3666             3665
            7487             7488             7500             7499             3653             3654             3667             3666
            7488             7489             7501             7500             3654             3655             3668             3667
            7489             7490             7502             7501             3655             3656             3669             3668
            7490             7491             7503             7502             3656             3657             3670             3669
            7491             7492             7504             7503             3657             3658             3671             3670
            7492             7493             7505             7504             3658             3659             3672             3671
            7493             7494             7506             7505             3659             3660             3673             3672
            7494             7495             7507             7506             3660             3661             3674             3673
            7495             7496             7508             7507             3661             3662             3675             3674
            7496              909              908             7508             3662               55               54             3675
            7405             7497             7509             7404             3663             3664             3677             3676
            7497             7498             7510             7509             3664             3665             3678             3677
            7498             7499             7511             7510             3665             3666             3679             3678
            7499             7500             7512             7511             3666             3667             3680             3679
            7500             7501             7513             7512             3667             3668             3681             3680
            7501             7502             7514             7513             3668             3669             3682             3681
            7502             7503             7515             7514             3669             3670             3683             3682
            7503             7504             7516             7515             3670             3671             3684             3683
            7504             7505             7517             7516             3671             3672             3685             3684
            7505             7506             7518             7517             3672             3673             3686             3685
            7506             7507             7519             7518             3673             3674             3687             3686
            7507             7508             7520             7519             3674             3675             3688             3687
            7508              908              907             7520             3675               54               53             3688
            7404             7509             7521             7403             3676             3677             3690             3689
            7509             7510             7522             7521             3677             3678             3691             3690
            7510             7511             7523             7522             3678             3679             3692             3691
            7511             7512             7524             7523             3679             3680             3693             3692
            7512             7513             7525             7524             3680             3681             3694             3693
            7513             7514             7526             7525             3681             3682             3695             3694
            7514             7515             7527             7526             3682             3683             3696             3695
            7515             7516             7528             7527             3683             3684             3697             3696
            7516             7517             7529             7528             3684             3685             3698             3697
            7517             7518             7530             7529             3685             3686             3699             3698
            7518             7519             7531             7530             3686             3687             3700             3699
            7519             7520             7532             7531             3687             3688             3701             3700
            7520              907              906             7532             3688               53               52             3701
            7403             7521             7533             7402             3689             3690             3703             3702
            7521             7522             7534             7533             3690             3691             3704             3703
            7522             7523             7535             7534             3691             3692             3705             3704
            7523             7524             7536             7535             3692             3693             3706             3705
            7524             7525             7537             7536             3693             3694             3707             3706
            7525             7526             7538             7537             3694             3695             3708             3707
            7526             7527             7539             7538             3695             3696             3709             3708
            7527             7528             7540             7539             3696             3697             3710             3709
            7528             7529             7541             7540             3697             3698             3711             3710
            7529             7530             7542             7541             3698             3699             3712             3711
            7530             7531             7543             7542             3699             3700             3713             3712
            7531             7532             7544             7543             3700             3701             3714             3713
            7532              906              905             7544             3701               52               51             3714
            7402             7533             7545             7401             3702             3703             3716             3715
            7533             7534             7546             7545             3703             3704             3717             3716
            7534             7535             7547             7546             3704             3705             3718             3717
            7535             7536             7548             7547             3705             3706             3719             3718
            7536             7537             7549             7548             3706             3707             3720             3719
            7537             7538             7550             7549             3707             3708             3721             3720
            7538             7539             7551             7550             3708             3709             3722             3721
            7539             7540             7552             7551             3709             3710             3723             3722
            7540             7541             7553             7552             3710             3711             3724             3723
            7541             7542             7554             7553             3711             3712             3725             3724
            7542             7543             7555             7554             3712             3713             3726             3725
            7543             7544             7556             7555             3713             3714             3727             3726
            7544              905              904             7556             3714               51               50             3727
            7401             7545             7557             7400             3715             3716             3729             3728
            7545             7546             7558             7557             3716             3717             3730             3729
            7546             7547             7559             7558             3717             3718             3731             3730
            7547             7548             7560             7559             3718             3719             3732             3731
            7548             7549             7561             7560             3719             3720             3733             3732
            7549             7550             7562             7561             3720             3721             3734             3733
            7550             7551             7563             7562             3721             3722             3735             3734
            7551             7552             7564             7563             3722             3723             3736             3735
            7552             7553             7565             7564             3723             3724             3737             3736
            7553             7554             7566             7565             3724             3725             3738             3737
            7554             7555             7567             7566             3725             3726             3739             3738
            7555             7556             7568             7567             3726             3727             3740             3739
            7556              904              903             7568             3727               50               49             3740
            7400             7557             7399             7387             3728             3729             3742             3741
            7557             7558             7398             7399             3729             3730             3743             3742
            7558             7559             7397             7398             3730             3731             3744             3743
            7559             7560             7396             7397             3731             3732             3745             3744
            7560             7561             7395             7396             3732             3733             3746             3745
            7561             7562             7394             7395             3733             3734             3747             3746
            7562             7563             7393             7394             3734             3735             3748             3747
            7563             7564             7392             7393             3735             3736             3749             3748
            7564             7565             7391             7392             3736             3737             3750             3749
            7565             7566             7390             7391             3737             3738             3751             3750
            7566             7567             7389             7390             3738             3739             3752             3751
            7567             7568             7388             7389             3739             3740             3753             3752
            7568              903              902             7388             3740               49               48             3753
             902              901             7569             7388               48               47             3754             3753
             901              900             7570             7569               47               46             3755             3754
             900              899             7571             7570               46               45             3756             3755
             899              898             7572             7571               45               44             3757             3756
             898              897             7573             7572               44               43             3758             3757
             897              896             7574             7573               43               42             3759             3758
             896              895             7575             7574               42               41             3760             3759
             895              894             7576             7575               41               40             3761             3760
             894              893             7577             7576               40               39             3762             3761
             893              892             7578             7577               39               38             3763             3762
             892              891             7579             7578               38               37             3764             3763
             891              890             7580             7579               37               36             3765             3764
             890               61             4054             7580               36                1              371             3765
            7388             7569             7581             7389             3753             3754             3766             3752
            7569             7570             7582             7581             3754             3755             3767             3766
            7570             7571             7583             7582             3755             3756             3768             3767
            7571             7572             7584             7583             3756             3757             3769             3768
            7572             7573             7585             7584             3757             3758             3770             3769
            7573             7574             7586             7585             3758             3759             3771             3770
            7574             7575             7587             7586             3759             3760             3772             3771
            7575             7576             7588             7587             3760             3761             3773             3772
            7576             7577             7589             7588             3761             3762             3774             3773
            7577             7578             7590             7589             3762             3763             3775             3774
            7578             7579             7591             7590             3763             3764             3776             3775
            7579             7580             7592             7591             3764             3765             3777             3776
            7580             4054             4055             7592             3765              371              372             3777
            7389             7581             7593             7390             3752             3766             3778             3751
            7581             7582             7594             7593             3766             3767             3779             3778
            7582             7583             7595             7594             3767             3768             3780             3779
            7583             7584             7596             7595             3768             3769             3781             3780
            7584             7585             7597             7596             3769             3770             3782             3781
            7585             7586             7598             7597             3770             3771             3783             3782
            7586             7587             7599             7598             3771             3772             3784             3783
            7587             7588             7600             7599             3772             3773             3785             3784
            7588             7589             7601             7600             3773             3774             3786             3785
            7589             7590             7602             7601             3774             3775             3787             3786
            7590             7591             7603             7602             3775             3776             3788             3787
            7591             7592             7604             7603             3776             3777             3789             3788
            7592             4055             4056             7604             3777              372              373             3789
            7390             7593             7605             7391             3751             3778             3790             3750
            7593             7594             7606             7605             3778             3779             3791             3790
            7594             7595             7607             7606             3779             3780             3792             3791
            7595             7596             7608             7607             3780             3781             3793             3792
            7596             7597             7609             7608             3781             3782             3794             3793
            7597             7598             7610             7609             3782             3783             3795             3794
            7598             7599             7611             7610             3783             3784             3796             3795
            7599             7600             7612             7611             3784             3785             3797             3796
            7600             7601             7613             7612             3785             3786             3798             3797
            7601             7602             7614             7613             3786             3787             3799             3798
            7602             7603             7615             7614             3787             3788             3800             3799
            7603             7604             7616             7615             3788             3789             3801             3800
            7604             4056             4057             7616             3789              373              374             3801
            7391             7605             7617             7392             3750             3790             3802             3749
            7605             7606             7618             7617             3790             3791             3803             3802
            7606             7607             7619             7618             3791             3792             3804             3803
            7607             7608             7620             7619             3792             3793             3805             3804
            7608             7609             7621             7620             3793             3794             3806             3805
            7609             7610             7622             7621             3794             3795             3807             3806
            7610             7611             7623             7622             3795             3796             3808             3807
            7611             7612             7624             7623             3796             3797             3809             3808
            7612             7613             7625             7624             3797             3798             3810             3809
            7613             7614             7626             7625             3798             3799             3811             3810
            7614             7615             7627             7626             3799             3800             3812             3811
            7615             7616             7628             7627             3800             3801             3813             3812
            7616             4057             4058             7628             3801              374              375             3813
            7392             7617             7629             7393             3749             3802             3814             3748
            7617             7618             7630             7629             3802             3803             3815             3814
            7618             7619             7631             7630             3803             3804             3816             3815
            7619             7620             7632             7631             3804             3805             3817             3816
            7620             7621             7633             7632             3805             3806             3818             3817
            7621             7622             7634             7633             3806             3807             3819             3818
            7622             7623             7635             7634             3807             3808             3820             3819
            7623             7624             7636             7635             3808             3809             3821             3820
            7624             7625             7637             7636             3809             3810             3822             3821
            7625             7626             7638             7637             3810             3811             3823             3822
            7626             7627             7639             7638             3811             3812             3824             3823
            7627             7628             7640             7639             3812             3813             3825             3824
            7628             4058             4059             7640             3813              375              376             3825
            7393             7629             7641             7394             3748             3814             3826             3747
            7629             7630             7642             7641             3814             3815             3827             3826
            7630             7631             7643             7642             3815             3816             3828             3827
            7631             7632             7644             7643             3816             3817             3829             3828
            7632             7633             7645             7644             3817             3818             3830             3829
            7633             7634             7646             7645             3818             3819             3831             3830
            7634             7635             7647             7646             3819             3820             3832             3831
            7635             7636             7648             7647             3820             3821             3833             3832
            7636             7637             7649             7648             3821             3822             3834             3833
            7637             7638             7650             7649             3822             3823             3835             3834
            7638             7639             7651             7650             3823             3824             3836             3835
            7639             7640             7652             7651             3824             3825             3837             3836
            7640             4059             4060             7652             3825              376              377             3837
            7394             7641             7653             7395             3747             3826             3838             3746
            7641             7642             7654             7653             3826             3827             3839             3838
            7642             7643             7655             7654             3827             3828             3840             3839
            7643             7644             7656             7655             3828             3829             3841             3840
            7644             7645             7657             7656             3829             3830             3842             3841
            7645             7646             7658             7657             3830             3831             3843             3842
            7646             7647             7659             7658             3831             3832             3844             3843
            7647             7648             7660             7659             3832             3833             3845             3844
            7648             7649             7661             7660             3833             3834             3846             3845
            7649             7650             7662             7661             3834             3835             3847             3846
            7650             7651             7663             7662             3835             3836             3848             3847
            7651             7652             7664             7663             3836             3837             3849             3848
            7652             4060             4061             7664             3837              377              378             3849
            7395             7653             7665             7396             3746             3838             3850             3745
            7653             7654             7666             7665             3838             3839             3851             3850
            7654             7655             7667             7666             3839             3840             3852             3851
            7655             7656             7668             7667             3840             3841             3853             3852
            7656             7657             7669             7668             3841             3842             3854             3853
            7657             7658             7670             7669             3842             3843             3855             3854
            7658             7659             7671             7670             3843             3844             3856             3855
            7659             7660             7672             7671             3844             3845             3857             3856
            7660             7661             7673             7672             3845             3846             3858             3857
            7661             7662             7674             7673             3846             3847             3859             3858
            7662             7663             7675             7674             3847             3848             3860             3859
            7663             7664             7676             7675             3848             3849             3861             3860
            7664             4061             4062             7676             3849              378              379             3861
            7396             7665             7677             7397             3745             3850             3862             3744
            7665             7666             7678             7677             3850             3851             3863             3862
            7666             7667             7679             7678             3851             3852             3864             3863
            7667             7668             7680             7679             3852             3853             3865             3864
            7668             7669             7681             7680             3853             3854             3866             3865
            7669             7670             7682             7681             3854             3855             3867             3866
            7670             7671             7683             7682             3855             3856             3868             3867
            7671             7672             7684             7683             3856             3857             3869             3868
            7672             7673             7685             7684             3857             3858             3870             3869
            7673             7674             7686             7685             3858             3859             3871             3870
            7674             7675             7687             7686             3859             3860             3872             3871
            7675             7676             7688             7687             3860             3861             3873             3872
            7676             4062             4063             7688             3861              379              380             3873
            7397             7677             7689             7398             3744             3862             3874             3743
            7677             7678             7690             7689             3862             3863             3875             3874
            7678             7679             7691             7690             3863             3864             3876             3875
            7679             7680             7692             7691             3864             3865             3877             3876
            7680             7681             7693             7692             3865             3866             3878             3877
            7681             7682             7694             7693             3866             3867             3879             3878
            7682             7683             7695             7694             3867             3868             3880             3879
            7683             7684             7696             7695             3868             3869             3881             3880
            7684             7685             7697             7696             3869             3870             3882             3881
            7685             7686             7698             7697             3870             3871             3883             3882
            7686             7687             7699             7698             3871             3872             3884             3883
            7687             7688             7700             7699             3872             3873             3885             3884
            7688             4063             4064             7700             3873              380              381             3885
            7398             7689             7701             7399             3743             3874             3886             3742
            7689             7690             7702             7701             3874             3875             3887             3886
            7690             7691             7703             7702             3875             3876             3888             3887
            7691             7692             7704             7703             3876             3877             3889             3888
            7692             7693             7705             7704             3877             3878             3890             3889
            7693             7694             7706             7705             3878             3879             3891             3890
            7694             7695             7707             7706             3879             3880             3892             3891
            7695             7696             7708             7707             3880             3881             3893             3892
            7696             7697             7709             7708             3881             3882             3894             3893
            7697             7698             7710             7709             3882             3883             3895             3894
            7698             7699             7711             7710             3883             3884             3896             3895
            7699             7700             7712             7711             3884             3885             3897             3896
            7700             4064             4065             7712             3885              381              382             3897
            7399             7701             7412             7387             3742             3886             3898             3741
            7701             7702             7413             7412             3886             3887             3899             3898
            7702             7703             7414             7413             3887             3888             3900             3899
            7703             7704             7415             7414             3888             3889             3901             3900
            7704             7705             7416             7415             3889             3890             3902             3901
            7705             7706             7417             7416             3890             3891             3903             3902
            7706             7707             7418             7417             3891             3892             3904             3903
            7707             7708             7419             7418             3892             3893             3905             3904
            7708             7709             7420             7419             3893             3894             3906             3905
            7709             7710             7421             7420             3894             3895             3907             3906
            7710             7711             7422             7421             3895             3896             3908             3907
            7711             7712             7423             7422             3896             3897             3909             3908
            7712             4065             4066             7423             3897              382              383             3909
            4066             4067             7713             7423              383              384             3910             3909
            4067             4068             7714             7713              384              385             3911             3910
            4068             4069             7715             7714              385              386             3912             3911
            4069             4070             7716             7715              386              387             3913             3912
            4070             4071             7717             7716              387              388             3914             3913
            4071             4072             7718             7717              388              389             3915             3914
            4072             4073             7719             7718              389              390             3916             3915
            4073             4074             7720             7719              390              391             3917             3916
            4074             4075             7721             7720              391              392             3918             3917
            4075             4076             7722             7721              392              393             3919             3918
            4076             4077             7723             7722              393              394             3920             3919
            4077             4078             7724             7723              394              395             3921             3920
            4078              319             3090             7724              395                9              318             3921
            7423             7713             7725             7422             3909             3910             3922             3908
            7713             7714             7726             7725             3910             3911             3923             3922
            7714             7715             7727             7726             3911             3912             3924             3923
            7715             7716             7728             7727             3912             3913             3925             3924
            7716             7717             7729             7728             3913             3914             3926             3925
            7717             7718             7730             7729             3914             3915             3927             3926
            7718             7719             7731             7730             3915             3916             3928             3927
            7719             7720             7732             7731             3916             3917             3929             3928
            7720             7721             7733             7732             3917             3918             3930             3929
            7721             7722             7734             7733             3918             3919             3931             3930
            7722             7723             7735             7734             3919             3920             3932             3931
            7723             7724             7736             7735             3920             3921             3933             3932
            7724             3090             3089             7736             3921              318              317             3933
            7422             7725             7737             7421             3908             3922             3934             3907
            7725             7726             7738             7737             3922             3923             3935             3934
            7726             7727             7739             7738             3923             3924             3936             3935
            7727             7728             7740             7739             3924             3925             3937             3936
            7728             7729             7741             7740             3925             3926             3938             3937
            7729             7730             7742             7741             3926             3927             3939             3938
            7730             7731             7743             7742             3927             3928             3940             3939
            7731             7732             7744             7743             3928             3929             3941             3940
            7732             7733             7745             7744             3929             3930             3942             3941
            7733             7734             7746             7745             3930             3931             3943             3942
            7734             7735             7747             7746             3931             3932             3944             3943
            7735             7736             7748             7747             3932             3933             3945             3944
            7736             3089             3088             7748             3933              317              316             3945
            7421             7737             7749             7420             3907             3934             3946             3906
            7737             7738             7750             7749             3934             3935             3947             3946
            7738             7739             7751             7750             3935             3936             3948             3947
            7739             7740             7752             7751             3936             3937             3949             3948
            7740             7741             7753             7752             3937             3938             3950             3949
            7741             7742             7754             7753             3938             3939             3951             3950
            7742             7743             7755             7754             3939             3940             3952             3951
            7743             7744             7756             7755             3940             3941             3953             3952
            7744             7745             7757             7756             3941             3942             3954             3953
            7745             7746             7758             7757             3942             3943             3955             3954
            7746             7747             7759             7758             3943             3944             3956             3955
            7747             7748             7760             7759             3944             3945             3957             3956
            7748             3088             3087             7760             3945              316              315             3957
            7420             7749             7761             7419             3906             3946             3958             3905
            7749             7750             7762             7761             3946             3947             3959             3958
            7750             7751             7763             7762             3947             3948             3960             3959
            7751             7752             7764             7763             3948             3949             3961             3960
            7752             7753             7765             7764             3949             3950             3962             3961
            7753             7754             7766             7765             3950             3951             3963             3962
            7754             7755             7767             7766             3951             3952             3964             3963
            7755             7756             7768             7767             3952             3953             3965             3964
            7756             7757             7769             7768             3953             3954             3966             3965
            7757             7758             7770             7769             3954             3955             3967             3966
            7758             7759             7771             7770             3955             3956             3968             3967
            7759             7760             7772             7771             3956             3957             3969             3968
            7760             3087             3086             7772             3957              315              314             3969
            7419             7761             7773             7418             3905             3958             3970             3904
            7761             7762             7774             7773             3958             3959             3971             3970
            7762             7763             7775             7774             3959             3960             3972             3971
            7763             7764             7776             7775             3960             3961             3973             3972
            7764             7765             7777             7776             3961             3962             3974             3973
            7765             7766             7778             7777             3962             3963             3975             3974
            7766             7767             7779             7778             3963             3964             3976             3975
            7767             7768             7780             7779             3964             3965             3977             3976
            7768             7769             7781             7780             3965             3966             3978             3977
            7769             7770             7782             7781             3966             3967             3979             3978
            7770             7771             7783             7782             3967             3968             3980             3979
            7771             7772             7784             7783             3968             3969             3981             3980
            7772             3086             3085             7784             3969              314              313             3981
            7418             7773             7785             7417             3904             3970             3982             3903
            7773             7774             7786             7785             3970             3971             3983             3982
            7774             7775             7787             7786             3971             3972             3984             3983
            7775             7776             7788             7787             3972             3973             3985             3984
            7776             7777             7789             7788             3973             3974             3986             3985
            7777             7778             7790             7789             3974             3975             3987             3986
            7778             7779             7791             7790             3975             3976             3988             3987
            7779             7780             7792             7791             3976             3977             3989             3988
            7780             7781             7793             7792             3977             3978             3990             3989
            7781             7782             7794             7793             3978             3979             3991             3990
            7782             7783             7795             7794             3979             3980             3992             3991
            7783             7784             7796             7795             3980             3981             3993             3992
            7784             3085             3084             7796             3981              313              312             3993
            7417             7785             7797             7416             3903             3982             3994             3902
            7785             7786             7798             7797             3982             3983             3995             3994
            7786             7787             7799             7798             3983             3984             3996             3995
            7787             7788             7800             7799             3984             3985             3997             3996
            7788             7789             7801             7800             3985             3986             3998             3997
            7789             7790             7802             7801             3986             3987             3999             3998
            7790             7791             7803             7802             3987             3988             4000             3999
            7791             7792             7804             7803             3988             3989             4001             4000
            7792             7793             7805             7804             3989             3990             4002             4001
            7793             7794             7806             7805             3990             3991             4003             4002
            7794             7795             7807             7806             3991             3992             4004             4003
            7795             7796             7808             7807             3992             3993             4005             4004
            7796             3084             3083             7808             3993              312              311             4005
            7416             7797             7809             7415             3902             3994             4006             3901
            7797             7798             7810             7809             3994             3995             4007             4006
            7798             7799             7811             7810             3995             3996             4008             4007
            7799             7800             7812             7811             3996             3997             4009             4008
            7800             7801             7813             7812             3997             3998             4010             4009
            7801             7802             7814             7813             3998             3999             4011             4010
            7802             7803             7815             7814             3999             4000             4012             4011
            7803             7804             7816             7815             4000             4001             4013             4012
            7804             7805             7817             7816             4001             4002             4014             4013
            7805             7806             7818             7817             4002             4003             4015             4014
            7806             7807             7819             7818             4003             4004             4016             4015
            7807             7808             7820             7819             4004             4005             4017             4016
            7808             3083             3082             7820             4005              311              310             4017
            7415             7809             7821             7414             3901             4006             4018             3900
            7809             7810             7822             7821             4006             4007             4019             4018
            7810             7811             7823             7822             4007             4008             4020             4019
            7811             7812             7824             7823             4008             4009             4021             4020
            7812             7813             7825             7824             4009             4010             4022             4021
            7813             7814             7826             7825             4010             4011             4023             4022
            7814             7815             7827             7826             4011             4012             4024             4023
            7815             7816             7828             7827             4012             4013             4025             4024
            7816             7817             7829             7828             4013             4014             4026             4025
            7817             7818             7830             7829             4014             4015             4027             4026
            7818             7819             7831             7830             4015             4016             4028             4027
            7819             7820             7832             7831             4016             4017             4029             4028
            7820             3082             3081             7832             4017              310              309             4029
            7414             7821             7833             7413             3900             4018             4030             3899
            7821             7822             7834             7833             4018             4019             4031             4030
            7822             7823             7835             7834             4019             4020             4032             4031
            7823             7824             7836             7835             4020             4021             4033             4032
            7824             7825             7837             7836             4021             4022             4034             4033
            7825             7826             7838             7837             4022             4023             4035             4034
            7826             7827             7839             7838             4023             4024             4036             4035
            7827             7828             7840             7839             4024             4025             4037             4036
            7828             7829             7841             7840             4025             4026             4038             4037
            7829             7830             7842             7841             4026             4027             4039             4038
            7830             7831             7843             7842             4027             4028             4040             4039
            7831             7832             7844             7843             4028             4029             4041             4040
            7832             3081             3080             7844             4029              309              308             4041
            7413             7833             7845             7412             3899             4030             4042             3898
            7833             7834             7846             7845             4030             4031             4043             4042
            7834             7835             7847             7846             4031             4032             4044             4043
            7835             7836             7848             7847             4032             4033             4045             4044
            7836             7837             7849             7848             4033             4034             4046             4045
            7837             7838             7850             7849             4034             4035             4047             4046
            7838             7839             7851             7850             4035             4036             4048             4047
            7839             7840             7852             7851             4036             4037             4049             4048
            7840             7841             7853             7852             4037             4038             4050             4049
            7841             7842             7854             7853             4038             4039             4051             4050
            7842             7843             7855             7854             4039             4040             4052             4051
            7843             7844             7856             7855             4040             4041             4053             4052
            7844             3080             3079             7856             4041              308              307             4053
            7412             7845             7400             7387             3898             4042             3728             3741
            7845             7846             7401             7400             4042             4043             3715             3728
            7846             7847             7402             7401             4043             4044             3702             3715
            7847             7848             7403             7402             4044             4045             3689             3702
            7848             7849             7404             7403             4045             4046             3676             3689
            7849             7850             7405             7404             4046             4047             3663             3676
            7850             7851             7406             7405             4047             4048             3650             3663
            7851             7852             7407             7406             4048             4049             3637             3650
            7852             7853             7408             7407             4049             4050             3624             3637
            7853             7854             7409             7408             4050             4051             3611             3624
            7854             7855             7410             7409             4051             4052             3598             3611
            7855             7856             7411             7410             4052             4053             3585             3598
            7856             3079             3078             7411             4053              307              306             3585
            4104             4105             7893             7869              104              103              926              927
            4105             4106             7894             7893              103              102              925              926
            4106             4107             7895             7894              102              101              924              925
            4107             4108             7896             7895              101              100              923              924
            4108             4109             7897             7896              100               99              922              923
            4109             4110             7898             7897               99               98              921              922
            4110             4111             7899             7898               98               97              920              921
            4111             4112             7900             7899               97               96              919              920
            4112             4113             7901             7900               96               95              918              919
            4113             4114             7902             7901               95               94              917              918
            4114             4115             7903             7902               94               93              916              917
            4115             4116             7904             7903               93               92              915              916
            4116              396             4079             7904               92                4               62              915
            7869             7893             7569             7388              927              926              901              902
            7893             7894             7570             7569              926              925              900              901
            7894             7895             7571             7570              925              924              899              900
            7895             7896             7572             7571              924              923              898              899
            7896             7897             7573             7572              923              922              897              898
            7897             7898             7574             7573              922              921              896              897
            7898             7899             7575             7574              921              920              895              896
            7899             7900             7576             7575              920              919              894              895
            7900             7901             7577             7576              919              918              893              894
            7901             7902             7578             7577              918              917              892              893
            7902             7903             7579             7578              917              916              891              892
            7903             7904             7580             7579              916              915              890              891
            7904             4079             4054             7580              915               62               61              890
            4117             4118             7905             7870             4104             4105             7893             7869
            4118             4119             7906             7905             4105             4106             7894             7893
            4119             4120             7907             7906             4106             4107             7895             7894
            4120             4121             7908             7907             4107             4108             7896             7895
            4121             4122             7909             7908             4108             4109             7897             7896
            4122             4123             7910             7909             4109             4110             7898             7897
            4123             4124             7911             7910             4110             4111             7899             7898
            4124             4125             7912             7911             4111             4112             7900             7899
            4125             4126             7913             7912             4112             4113             7901             7900
            4126             4127             7914             7913             4113             4114             7902             7901
            4127             4128             7915             7914             4114             4115             7903             7902
            4128             4129             7916             7915             4115             4116             7904             7903
            4129              397             4080             7916             4116              396             4079             7904
            7870             7905             7581             7389             7869             7893             7569             7388
            7905             7906             7582             7581             7893             7894             7570             7569
            7906             7907             7583             7582             7894             7895             7571             7570
            7907             7908             7584             7583             7895             7896             7572             7571
            7908             7909             7585             7584             7896             7897             7573             7572
            7909             7910             7586             7585             7897             7898             7574             7573
            7910             7911             7587             7586             7898             7899             7575             7574
            7911             7912             7588             7587             7899             7900             7576             7575
            7912             7913             7589             7588             7900             7901             7577             7576
            7913             7914             7590             7589             7901             7902             7578             7577
            7914             7915             7591             7590             7902             7903             7579             7578
            7915             7916             7592             7591             7903             7904             7580             7579
            7916             4080             4055             7592             7904             4079             4054             7580
            4130             4131             7917             7871             4117             4118             7905             7870
            4131             4132             7918             7917             4118             4119             7906             7905
            4132             4133             7919             7918             4119             4120             7907             7906
            4133             4134             7920             7919             4120             4121             7908             7907
            4134             4135             7921             7920             4121             4122             7909             7908
            4135             4136             7922             7921             4122             4123             7910             7909
            4136             4137             7923             7922             4123             4124             7911             7910
            4137             4138             7924             7923             4124             4125             7912             7911
            4138             4139             7925             7924             4125             4126             7913             7912
            4139             4140             7926             7925             4126             4127             7914             7913
            4140             4141             7927             7926             4127             4128             7915             7914
            4141             4142             7928             7927             4128             4129             7916             7915
            4142              398             4081             7928             4129              397             4080             7916
            7871             7917             7593             7390             7870             7905             7581             7389
            7917             7918             7594             7593             7905             7906             7582             7581
            7918             7919             7595             7594             7906             7907             7583             7582
            7919             7920             7596             7595             7907             7908             7584             7583
            7920             7921             7597             7596             7908             7909             7585             7584
            7921             7922             7598             7597             7909             7910             7586             7585
            7922             7923             7599             7598             7910             7911             7587             7586
            7923             7924             7600             7599             7911             7912             7588             7587
            7924             7925             7601             7600             7912             7913             7589             7588
            7925             7926             7602             7601             7913             7914             7590             7589
            7926             7927             7603             7602             7914             7915             7591             7590
            7927             7928             7604             7603             7915             7916             7592             7591
            7928             4081             4056             7604             7916             4080             4055             7592
            4143             4144             7929             7872             4130             4131             7917             7871
            4144             4145             7930             7929             4131             4132             7918             7917
            4145             4146             7931             7930             4132             4133             7919             7918
            4146             4147             7932             7931             4133             4134             7920             7919
            4147             4148             7933             7932             4134             4135             7921             7920
            4148             4149             7934             7933             4135             4136             7922             7921
            4149             4150             7935             7934             4136             4137             7923             7922
            4150             4151             7936             7935             4137             4138             7924             7923
            4151             4152             7937             7936             4138             4139             7925             7924
            4152             4153             7938             7937             4139             4140             7926             7925
            4153             4154             7939             7938             4140             4141             7927             7926
            4154             4155             7940             7939             4141             4142             7928             7927
            4155              399             4082             7940             4142              398             4081             7928
            7872             7929             7605             7391             7871             7917             7593             7390
            7929             7930             7606             7605             7917             7918             7594             7593
            7930             7931             7607             7606             7918             7919             7595             7594
            7931             7932             7608             7607             7919             7920             7596             7595
            7932             7933             7609             7608             7920             7921             7597             7596
            7933             7934             7610             7609             7921             7922             7598             7597
            7934             7935             7611             7610             7922             7923             7599             7598
            7935             7936             7612             7611             7923             7924             7600             7599
            7936             7937             7613             7612             7924             7925             7601             7600
            7937             7938             7614             7613             7925             7926             7602             7601
            7938             7939             7615             7614             7926             7927             7603             7602
            7939             7940             7616             7615             7927             7928             7604             7603
            7940             4082             4057             7616             7928             4081             4056             7604
            4156             4157             7941             7873             4143             4144             7929             7872
            4157             4158             7942             7941             4144             4145             7930             7929
            4158             4159             7943             7942             4145             4146             7931             7930
            4159             4160             7944             7943             4146             4147             7932             7931
            4160             4161             7945             7944             4147             4148             7933             7932
            4161             4162             7946             7945             4148             4149             7934             7933
            4162             4163             7947             7946             4149             4150             7935             7934
            4163             4164             7948             7947             4150             4151             7936             7935
            4164             4165             7949             7948             4151             4152             7937             7936
            4165             4166             7950             7949             4152             4153             7938             7937
            4166             4167             7951             7950             4153             4154             7939             7938
            4167             4168             7952             7951             4154             4155             7940             7939
            4168              400             4083             7952             4155              399             4082             7940
            7873             7941             7617             7392             7872             7929             7605             7391
            7941             7942             7618             7617             7929             7930             7606             7605
            7942             7943             7619             7618             7930             7931             7607             7606
            7943             7944             7620             7619             7931             7932             7608             7607
            7944             7945             7621             7620             7932             7933             7609             7608
            7945             7946             7622             7621             7933             7934             7610             7609
            7946             7947             7623             7622             7934             7935             7611             7610
            7947             7948             7624             7623             7935             7936             7612             7611
            7948             7949             7625             7624             7936             7937             7613             7612
            7949             7950             7626             7625             7937             7938             7614             7613
            7950             7951             7627             7626             7938             7939             7615             7614
            7951             7952             7628             7627             7939             7940             7616             7615
            7952             4083             4058             7628             7940             4082             4057             7616
            4169             4170             7953             7874             4156             4157             7941             7873
            4170             4171             7954             7953             4157             4158             7942             7941
            4171             4172             7955             7954             4158             4159             7943             7942
            4172             4173             7956             7955             4159             4160             7944             7943
            4173             4174             7957             7956             4160             4161             7945             7944
            4174             4175             7958             7957             4161             4162             7946             7945
            4175             4176             7959             7958             4162             4163             7947             7946
            4176             4177             7960             7959             4163             4164             7948             7947
            4177             4178             7961             7960             4164             4165             7949             7948
            4178             4179             7962             7961             4165             4166             7950             7949
            4179             4180             7963             7962             4166             4167             7951             7950
            4180             4181             7964             7963             4167             4168             7952             7951
            4181              401             4084             7964             4168              400             4083             7952
            7874             7953             7629             7393             7873             7941             7617             7392
            7953             7954             7630             7629             7941             7942             7618             7617
            7954             7955             7631             7630             7942             7943             7619             7618
            7955             7956             7632             7631             7943             7944             7620             7619
            7956             7957             7633             7632             7944             7945             7621             7620
            7957             7958             7634             7633             7945             7946             7622             7621
            7958             7959             7635             7634             7946             7947             7623             7622
            7959             7960             7636             7635             7947             7948             7624             7623
            7960             7961             7637             7636             7948             7949             7625             7624
            7961             7962             7638             7637             7949             7950             7626             7625
            7962             7963             7639             7638             7950             7951             7627             7626
            7963             7964             7640             7639             7951             7952             7628             7627
            7964             4084             4059             7640             7952             4083             4058             7628
            4182             4183             7965             7875             4169             4170             7953             7874
            4183             4184             7966             7965             4170             4171             7954             7953
            4184             4185             7967             7966             4171             4172             7955             7954
            4185             4186             7968             7967             4172             4173             7956             7955
            4186             4187             7969             7968             4173             4174             7957             7956
            4187             4188             7970             7969             4174             4175             7958             7957
            4188             4189             7971             7970             4175             4176             7959             7958
            4189             4190             7972             7971             4176             4177             7960             7959
            4190             4191             7973             7972             4177             4178             7961             7960
            4191             4192             7974             7973             4178             4179             7962             7961
            4192             4193             7975             7974             4179             4180             7963             7962
            4193             4194             7976             7975             4180             4181             7964             7963
            4194              402             4085             7976             4181              401             4084             7964
            7875             7965             7641             7394             7874             7953             7629             7393
            7965             7966             7642             7641             7953             7954             7630             7629
            7966             7967             7643             7642             7954             7955             7631             7630
            7967             7968             7644             7643             7955             7956             7632             7631
            7968             7969             7645             7644             7956             7957             7633             7632
            7969             7970             7646             7645             7957             7958             7634             7633
            7970             7971             7647             7646             7958             7959             7635             7634
            7971             7972             7648             7647             7959             7960             7636             7635
            7972             7973             7649             7648             7960             7961             7637             7636
            7973             7974             7650             7649             7961             7962             7638             7637
            7974             7975             7651             7650             7962             7963             7639             7638
            7975             7976             7652             7651             7963             7964             7640             7639
            7976             4085             4060             7652             7964             4084             4059             7640
            4195             4196             7977             7876             4182             4183             7965             7875
            4196             4197             7978             7977             4183             4184             7966             7965
            4197             4198             7979             7978             4184             4185             7967             7966
            4198             4199             7980             7979             4185             4186             7968             7967
            4199             4200             7981             7980             4186             4187             7969             7968
            4200             4201             7982             7981             4187             4188             7970             7969
            4201             4202             7983             7982             4188             4189             7971             7970
            4202             4203             7984             7983             4189             4190             7972             7971
            4203             4204             7985             7984             4190             4191             7973             7972
            4204             4205             7986             7985             4191             4192             7974             7973
            4205             4206             7987             7986             4192             4193             7975             7974
            4206             4207             7988             7987             4193             4194             7976             7975
            4207              403             4086             7988             4194              402             4085             7976
            7876             7977             7653             7395             7875             7965             7641             7394
            7977             7978             7654             7653             7965             7966             7642             7641
            7978             7979             7655             7654             7966             7967             7643             7642
            7979             7980             7656             7655             7967             7968             7644             7643
            7980             7981             7657             7656             7968             7969             7645             7644
            7981             7982             7658             7657             7969             7970             7646             7645
            7982             7983             7659             7658             7970             7971             7647             7646
            7983             7984             7660             7659             7971             7972             7648             7647
            7984             7985             7661             7660             7972             7973             7649             7648
            7985             7986             7662             7661             7973             7974             7650             7649
            7986             7987             7663             7662             7974             7975             7651             7650
            7987             7988             7664             7663             7975             7976             7652             7651
            7988             4086             4061             7664             7976             4085             4060             7652
            4208             4209             7989             7877             4195             4196             7977             7876
            4209             4210             7990             7989             4196             4197             7978             7977
            4210             4211             7991             7990             4197             4198             7979             7978
            4211             4212             7992             7991             4198             4199             7980             7979
            4212             4213             7993             7992             4199             4200             7981             7980
            4213             4214             7994             7993             4200             4201             7982             7981
            4214             4215             7995             7994             4201             4202             7983             7982
            4215             4216             7996             7995             4202             4203             7984             7983
            4216             4217             7997             7996             4203             4204             7985             7984
            4217             4218             7998             7997             4204             4205             7986             7985
            4218             4219             7999             7998             4205             4206             7987             7986
            4219             4220             8000             7999             4206             4207             7988             7987
            4220              404             4087             8000             4207              403             4086             7988
            7877             7989             7665             7396             7876             7977             7653             7395
            7989             7990             7666             7665             7977             7978             7654             7653
            7990             7991             7667             7666             7978             7979             7655             7654
            7991             7992             7668             7667             7979             7980             7656             7655
            7992             7993             7669             7668             7980             7981             7657             7656
            7993             7994             7670             7669             7981             7982             7658             7657
            7994             7995             7671             7670             7982             7983             7659             7658
            7995             7996             7672             7671             7983             7984             7660             7659
            7996             7997             7673             7672             7984             7985             7661             7660
            7997             7998             7674             7673             7985             7986             7662             7661
            7998             7999             7675             7674             7986             7987             7663             7662
            7999             8000             7676             7675             7987             7988             7664             7663
            8000             4087             4062             7676             7988             4086             4061             7664
            4221             4222             8001             7878             4208             4209             7989             7877
            4222             4223             8002             8001             4209             4210             7990             7989
            4223             4224             8003             8002             4210             4211             7991             7990
            4224             4225             8004             8003             4211             4212             7992             7991
            4225             4226             8005             8004             4212             4213             7993             7992
            4226             4227             8006             8005             4213             4214             7994             7993
            4227             4228             8007             8006             4214             4215             7995             7994
            4228             4229             8008             8007             4215             4216             7996             7995
            4229             4230             8009             8008             4216             4217             7997             7996
            4230             4231             8010             8009             4217             4218             7998             7997
            4231             4232             8011             8010             4218             4219             7999             7998
            4232             4233             8012             8011             4219             4220             8000             7999
            4233              405             4088             8012             4220              404             4087             8000
            7878             8001             7677             7397             7877             7989             7665             7396
            8001             8002             7678             7677             7989             7990             7666             7665
            8002             8003             7679             7678             7990             7991             7667             7666
            8003             8004             7680             7679             7991             7992             7668             7667
            8004             8005             7681             7680             7992             7993             7669             7668
            8005             8006             7682             7681             7993             7994             7670             7669
            8006             8007             7683             7682             7994             7995             7671             7670
            8007             8008             7684             7683             7995             7996             7672             7671
            8008             8009             7685             7684             7996             7997             7673             7672
            8009             8010             7686             7685             7997             7998             7674             7673
            8010             8011             7687             7686             7998             7999             7675             7674
            8011             8012             7688             7687             7999             8000             7676             7675
            8012             4088             4063             7688             8000             4087             4062             7676
            4234             4235             8013             7879             4221             4222             8001             7878
            4235             4236             8014             8013             4222             4223             8002             8001
            4236             4237             8015             8014             4223             4224             8003             8002
            4237             4238             8016             8015             4224             4225             8004             8003
            4238             4239             8017             8016             4225             4226             8005             8004
            4239             4240             8018             8017             4226             4227             8006             8005
            4240             4241             8019             8018             4227             4228             8007             8006
            4241             4242             8020             8019             4228             4229             8008             8007
            4242             4243             8021             8020             4229             4230             8009             8008
            4243             4244             8022             8021             4230             4231             8010             8009
            4244             4245             8023             8022             4231             4232             8011             8010
            4245             4246             8024             8023             4232             4233             8012             8011
            4246              406             4089             8024             4233              405             4088             8012
            7879             8013             7689             7398             7878             8001             7677             7397
            8013             8014             7690             7689             8001             8002             7678             7677
            8014             8015             7691             7690             8002             8003             7679             7678
            8015             8016             7692             7691             8003             8004             7680             7679
            8016             8017             7693             7692             8004             8005             7681             7680
            8017             8018             7694             7693             8005             8006             7682             7681
            8018             8019             7695             7694             8006             8007             7683             7682
            8019             8020             7696             7695             8007             8008             7684             7683
            8020             8021             7697             7696             8008             8009             7685             7684
            8021             8022             7698             7697             8009             8010             7686             7685
            8022             8023             7699             7698             8010             8011             7687             7686
            8023             8024             7700             7699             8011             8012             7688             7687
            8024             4089             4064             7700             8012             4088             4063             7688
            4247             4248             8025             7880             4234             4235             8013             7879
            4248             4249             8026             8025             4235             4236             8014             8013
            4249             4250             8027             8026             4236             4237             8015             8014
            4250             4251             8028             8027             4237             4238             8016             8015
            4251             4252             8029             8028             4238             4239             8017             8016
            4252             4253             8030             8029             4239             4240             8018             8017
            4253             4254             8031             8030             4240             4241             8019             8018
            4254             4255             8032             8031             4241             4242             8020             8019
            4255             4256             8033             8032             4242             4243             8021             8020
            4256             4257             8034             8033             4243             4244             8022             8021
            4257             4258             8035             8034             4244             4245             8023             8022
            4258             4259             8036             8035             4245             4246             8024             8023
            4259              407             4090             8036             4246              406             4089             8024
            7880             8025             7701             7399             7879             8013             7689             7398
            8025             8026             7702             7701             8013             8014             7690             7689
            8026             8027             7703             7702             8014             8015             7691             7690
            8027             8028             7704             7703             8015             8016             7692             7691
            8028             8029             7705             7704             8016             8017             7693             7692
            8029             8030             7706             7705             8017             8018             7694             7693
            8030             8031             7707             7706             8018             8019             7695             7694
            8031             8032             7708             7707             8019             8020             7696             7695
            8032             8033             7709             7708             8020             8021             7697             7696
            8033             8034             7710             7709             8021             8022             7698             7697
            8034             8035             7711             7710             8022             8023             7699             7698
            8035             8036             7712             7711             8023             8024             7700             7699
            8036             4090             4065             7712             8024             4089             4064             7700
            4260             4261             7857             7424             4247             4248             8025             7880
            4261             4262             7858             7857             4248             4249             8026             8025
            4262             4263             7859             7858             4249             4250             8027             8026
            4263             4264             7860             7859             4250             4251             8028             8027
            4264             4265             7861             7860             4251             4252             8029             8028
            4265             4266             7862             7861             4252             4253             8030             8029
            4266             4267             7863             7862             4253             4254             8031             8030
            4267             4268             7864             7863             4254             4255             8032             8031
            4268             4269             7865             7864             4255             4256             8033             8032
            4269             4270             7866             7865             4256             4257             8034             8033
            4270             4271             7867             7866             4257             4258             8035             8034
            4271             4272             7868             7867             4258             4259             8036             8035
            4272              408             4091             7868             4259              407             4090             8036
            7424             7857             7412             7387             7880             8025             7701             7399
            7857             7858             7413             7412             8025             8026             7702             7701
            7858             7859             7414             7413             8026             8027             7703             7702
            7859             7860             7415             7414             8027             8028             7704             7703
            7860             7861             7416             7415             8028             8029             7705             7704
            7861             7862             7417             7416             8029             8030             7706             7705
            7862             7863             7418             7417             8030             8031             7707             7706
            7863             7864             7419             7418             8031             8032             7708             7707
            7864             7865             7420             7419             8032             8033             7709             7708
            7865             7866             7421             7420             8033             8034             7710             7709
            7866             7867             7422             7421             8034             8035             7711             7710
            7867             7868             7423             7422             8035             8036             7712             7711
            7868             4091             4066             7423             8036             4090             4065             7712
            3066             3091             8037             7436               89               88              939              914
            3091              321             4273             8037               88                5              116              939
            7436             8037             8038             7448              914              939              938              913
            8037             4273             4274             8038              939              116              115              938
            7448             8038             8039             7460              913              938              937              912
            8038             4274             4275             8039              938              115              114              937
            7460             8039             8040             7472              912              937              936              911
            8039             4275             4276             8040              937              114              113              936
            7472             8040             8041             7484              911              936              935              910
            8040             4276             4277             8041              936              113              112              935
            7484             8041             8042             7496              910              935              934              909
            8041             4277             4278             8042              935              112              111              934
            7496             8042             8043             7508              909              934              933              908
            8042             4278             4279             8043              934              111              110              933
            7508             8043             8044             7520              908              933              932              907
            8043             4279             4280             8044              933              110              109              932
            7520             8044             8045             7532              907              932              931              906
            8044             4280             4281             8045              932              109              108              931
            7532             8045             8046             7544              906              931              930              905
            8045             4281             4282             8046              931              108              107              930
            7544             8046             8047             7556              905              930              929              904
            8046             4282             4283             8047              930              107              106              929
            7556             8047             8048             7568              904              929              928              903
            8047             4283             4284             8048              929              106              105              928
            7568             8048             7869             7388              903              928              927              902
            8048             4284             4104             7869              928              105              104              927
            3067             3092             8049             7435             3066             3091             8037             7436
            3092              322             4285             8049             3091              321             4273             8037
            7435             8049             8050             7447             7436             8037             8038             7448
            8049             4285             4286             8050             8037             4273             4274             8038
            7447             8050             8051             7459             7448             8038             8039             7460
            8050             4286             4287             8051             8038             4274             4275             8039
            7459             8051             8052             7471             7460             8039             8040             7472
            8051             4287             4288             8052             8039             4275             4276             8040
            7471             8052             8053             7483             7472             8040             8041             7484
            8052             4288             4289             8053             8040             4276             4277             8041
            7483             8053             8054             7495             7484             8041             8042             7496
            8053             4289             4290             8054             8041             4277             4278             8042
            7495             8054             8055             7507             7496             8042             8043             7508
            8054             4290             4291             8055             8042             4278             4279             8043
            7507             8055             8056             7519             7508             8043             8044             7520
            8055             4291             4292             8056             8043             4279             4280             8044
            7519             8056             8057             7531             7520             8044             8045             7532
            8056             4292             4293             8057             8044             4280             4281             8045
            7531             8057             8058             7543             7532             8045             8046             7544
            8057             4293             4294             8058             8045             4281             4282             8046
            7543             8058             8059             7555             7544             8046             8047             7556
            8058             4294             4295             8059             8046             4282             4283             8047
            7555             8059             8060             7567             7556             8047             8048             7568
            8059             4295             4296             8060             8047             4283             4284             8048
            7567             8060             7870             7389             7568             8048             7869             7388
            8060             4296             4117             7870             8048             4284             4104             7869
            3068             3093             8061             7434             3067             3092             8049             7435
            3093              323             4297             8061             3092              322             4285             8049
            7434             8061             8062             7446             7435             8049             8050             7447
            8061             4297             4298             8062             8049             4285             4286             8050
            7446             8062             8063             7458             7447             8050             8051             7459
            8062             4298             4299             8063             8050             4286             4287             8051
            7458             8063             8064             7470             7459             8051             8052             7471
            8063             4299             4300             8064             8051             4287             4288             8052
            7470             8064             8065             7482             7471             8052             8053             7483
            8064             4300             4301             8065             8052             4288             4289             8053
            7482             8065             8066             7494             7483             8053             8054             7495
            8065             4301             4302             8066             8053             4289             4290             8054
            7494             8066             8067             7506             7495             8054             8055             7507
            8066             4302             4303             8067             8054             4290             4291             8055
            7506             8067             8068             7518             7507             8055             8056             7519
            8067             4303             4304             8068             8055             4291             4292             8056
            7518             8068             8069             7530             7519             8056             8057             7531
            8068             4304             4305             8069             8056             4292             4293             8057
            7530             8069             8070             7542             7531             8057             8058             7543
            8069             4305             4306             8070             8057             4293             4294             8058
            7542             8070             8071             7554             7543             8058             8059             7555
            8070             4306             4307             8071             8058             4294             4295             8059
            7554             8071             8072             7566             7555             8059             8060             7567
            8071             4307             4308             8072             8059             4295             4296             8060
            7566             8072             7871             7390             7567             8060             7870             7389
            8072             4308             4130             7871             8060             4296             4117             7870
            3069             3094             8073             7433             3068             3093             8061             7434
            3094              324             4309             8073             3093              323             4297             8061
            7433             8073             8074             7445             7434             8061             8062             7446
            8073             4309             4310             8074             8061             4297             4298             8062
            7445             8074             8075             7457             7446             8062             8063             7458
            8074             4310             4311             8075             8062             4298             4299             8063
            7457             8075             8076             7469             7458             8063             8064             7470
            8075             4311             4312             8076             8063             4299             4300             8064
            7469             8076             8077             7481             7470             8064             8065             7482
            8076             4312             4313             8077             8064             4300             4301             8065
            7481             8077             8078             7493             7482             8065             8066             7494
            8077             4313             4314             8078             8065             4301             4302             8066
            7493             8078             8079             7505             7494             8066             8067             7506
            8078             4314             4315             8079             8066             4302             4303             8067
            7505             8079             8080             7517             7506             8067             8068             7518
            8079             4315             4316             8080             8067             4303             4304             8068
            7517             8080             8081             7529             7518             8068             8069             7530
            8080             4316             4317             8081             8068             4304             4305             8069
            7529             8081             8082             7541             7530             8069             8070             7542
            8081             4317             4318             8082             8069             4305             4306             8070
            7541             8082             8083             7553             7542             8070             8071             7554
            8082             4318             4319             8083             8070             4306             4307             8071
            7553             8083             8084             7565             7554             8071             8072             7566
            8083             4319             4320             8084             8071             4307             4308             8072
            7565             8084             7872             7391             7566             8072             7871             7390
            8084             4320             4143             7872             8072             4308             4130             7871
            3070             3095             8085             7432             3069             3094             8073             7433
            3095              325             4321             8085             3094              324             4309             8073
            7432             8085             8086             7444             7433             8073             8074             7445
            8085             4321             4322             8086             8073             4309             4310             8074
            7444             8086             8087             7456             7445             8074             8075             7457
            8086             4322             4323             8087             8074             4310             4311             8075
            7456             8087             8088             7468             7457             8075             8076             7469
            8087             4323             4324             8088             8075             4311             4312             8076
            7468             8088             8089             7480             7469             8076             8077             7481
            8088             4324             4325             8089             8076             4312             4313             8077
            7480             8089             8090             7492             7481             8077             8078             7493
            8089             4325             4326             8090             8077             4313             4314             8078
            7492             8090             8091             7504             7493             8078             8079             7505
            8090             4326             4327             8091             8078             4314             4315             8079
            7504             8091             8092             7516             7505             8079             8080             7517
            8091             4327             4328             8092             8079             4315             4316             8080
            7516             8092             8093             7528             7517             8080             8081             7529
            8092             4328             4329             8093             8080             4316             4317             8081
            7528             8093             8094             7540             7529             8081             8082             7541
            8093             4329             4330             8094             8081             4317             4318             8082
            7540             8094             8095             7552             7541             8082             8083             7553
            8094             4330             4331             8095             8082             4318             4319             8083
            7552             8095             8096             7564             7553             8083             8084             7565
            8095             4331             4332             8096             8083             4319             4320             8084
            7564             8096             7873             7392             7565             8084             7872             7391
            8096             4332             4156             7873             8084             4320             4143             7872
            3071             3096             8097             7431             3070             3095             8085             7432
            3096              326             4333             8097             3095              325             4321             8085
            7431             8097             8098             7443             7432             8085             8086             7444
            8097             4333             4334             8098             8085             4321             4322             8086
            7443             8098             8099             7455             7444             8086             8087             7456
            8098             4334             4335             8099             8086             4322             4323             8087
            7455             8099             8100             7467             7456             8087             8088             7468
            8099             4335             4336             8100             8087             4323             4324             8088
            7467             8100             8101             7479             7468             8088             8089             7480
            8100             4336             4337             8101             8088             4324             4325             8089
            7479             8101             8102             7491             7480             8089             8090             7492
            8101             4337             4338             8102             8089             4325             4326             8090
            7491             8102             8103             7503             7492             8090             8091             7504
            8102             4338             4339             8103             8090             4326             4327             8091
            7503             8103             8104             7515             7504             8091             8092             7516
            8103             4339             4340             8104             8091             4327             4328             8092
            7515             8104             8105             7527             7516             8092             8093             7528
            8104             4340             4341             8105             8092             4328             4329             8093
            7527             8105             8106             7539             7528             8093             8094             7540
            8105             4341             4342             8106             8093             4329             4330             8094
            7539             8106             8107             7551             7540             8094             8095             7552
            8106             4342             4343             8107             8094             4330             4331             8095
            7551             8107             8108             7563             7552             8095             8096             7564
            8107             4343             4344             8108             8095             4331             4332             8096
            7563             8108             7874             7393             7564             8096             7873             7392
            8108             4344             4169             7874             8096             4332             4156             7873
            3072             3097             8109             7430             3071             3096             8097             7431
            3097              327             4345             8109             3096              326             4333             8097
            7430             8109             8110             7442             7431             8097             8098             7443
            8109             4345             4346             8110             8097             4333             4334             8098
            7442             8110             8111             7454             7443             8098             8099             7455
            8110             4346             4347             8111             8098             4334             4335             8099
            7454             8111             8112             7466             7455             8099             8100             7467
            8111             4347             4348             8112             8099             4335             4336             8100
            7466             8112             8113             7478             7467             8100             8101             7479
            8112             4348             4349             8113             8100             4336             4337             8101
            7478             8113             8114             7490             7479             8101             8102             7491
            8113             4349             4350             8114             8101             4337             4338             8102
            7490             8114             8115             7502             7491             8102             8103             7503
            8114             4350             4351             8115             8102             4338             4339             8103
            7502             8115             8116             7514             7503             8103             8104             7515
            8115             4351             4352             8116             8103             4339             4340             8104
            7514             8116             8117             7526             7515             8104             8105             7527
            8116             4352             4353             8117             8104             4340             4341             8105
            7526             8117             8118             7538             7527             8105             8106             7539
            8117             4353             4354             8118             8105             4341             4342             8106
            7538             8118             8119             7550             7539             8106             8107             7551
            8118             4354             4355             8119             8106             4342             4343             8107
            7550             8119             8120             7562             7551             8107             8108             7563
            8119             4355             4356             8120             8107             4343             4344             8108
            7562             8120             7875             7394             7563             8108             7874             7393
            8120             4356             4182             7875             8108             4344             4169             7874
            3073             3098             8121             7429             3072             3097             8109             7430
            3098              328             4357             8121             3097              327             4345             8109
            7429             8121             8122             7441             7430             8109             8110             7442
            8121             4357             4358             8122             8109             4345             4346             8110
            7441             8122             8123             7453             7442             8110             8111             7454
            8122             4358             4359             8123             8110             4346             4347             8111
            7453             8123             8124             7465             7454             8111             8112             7466
            8123             4359             4360             8124             8111             4347             4348             8112
            7465             8124             8125             7477             7466             8112             8113             7478
            8124             4360             4361             8125             8112             4348             4349             8113
            7477             8125             8126             7489             7478             8113             8114             7490
            8125             4361             4362             8126             8113             4349             4350             8114
            7489             8126             8127             7501             7490             8114             8115             7502
            8126             4362             4363             8127             8114             4350             4351             8115
            7501             8127             8128             7513             7502             8115             8116             7514
            8127             4363             4364             8128             8115             4351             4352             8116
            7513             8128             8129             7525             7514             8116             8117             7526
            8128             4364             4365             8129             8116             4352             4353             8117
            7525             8129             8130             7537             7526             8117             8118             7538
            8129             4365             4366             8130             8117             4353             4354             8118
            7537             8130             8131             7549             7538             8118             8119             7550
            8130             4366             4367             8131             8118             4354             4355             8119
            7549             8131             8132             7561             7550             8119             8120             7562
            8131             4367             4368             8132             8119             4355             4356             8120
            7561             8132             7876             7395             7562             8120             7875             7394
            8132             4368             4195             7876             8120             4356             4182             7875
            3074             3099             8133             7428             3073             3098             8121             7429
            3099              329             4369             8133             3098              328             4357             8121
            7428             8133             8134             7440             7429             8121             8122             7441
            8133             4369             4370             8134             8121             4357             4358             8122
            7440             8134             8135             7452             7441             8122             8123             7453
            8134             4370             4371             8135             8122             4358             4359             8123
            7452             8135             8136             7464             7453             8123             8124             7465
            8135             4371             4372             8136             8123             4359             4360             8124
            7464             8136             8137             7476             7465             8124             8125             7477
            8136             4372             4373             8137             8124             4360             4361             8125
            7476             8137             8138             7488             7477             8125             8126             7489
            8137             4373             4374             8138             8125             4361             4362             8126
            7488             8138             8139             7500             7489             8126             8127             7501
            8138             4374             4375             8139             8126             4362             4363             8127
            7500             8139             8140             7512             7501             8127             8128             7513
            8139             4375             4376             8140             8127             4363             4364             8128
            7512             8140             8141             7524             7513             8128             8129             7525
            8140             4376             4377             8141             8128             4364             4365             8129
            7524             8141             8142             7536             7525             8129             8130             7537
            8141             4377             4378             8142             8129             4365             4366             8130
            7536             8142             8143             7548             7537             8130             8131             7549
            8142             4378             4379             8143             8130             4366             4367             8131
            7548             8143             8144             7560             7549             8131             8132             7561
            8143             4379             4380             8144             8131             4367             4368             8132
            7560             8144             7877             7396             7561             8132             7876             7395
            8144             4380             4208             7877             8132             4368             4195             7876
            3075             3100             8145             7427             3074             3099             8133             7428
            3100              330             4381             8145             3099              329             4369             8133
            7427             8145             8146             7439             7428             8133             8134             7440
            8145             4381             4382             8146             8133             4369             4370             8134
            7439             8146             8147             7451             7440             8134             8135             7452
            8146             4382             4383             8147             8134             4370             4371             8135
            7451             8147             8148             7463             7452             8135             8136             7464
            8147             4383             4384             8148             8135             4371             4372             8136
            7463             8148             8149             7475             7464             8136             8137             7476
            8148             4384             4385             8149             8136             4372             4373             8137
            7475             8149             8150             7487             7476             8137             8138             7488
            8149             4385             4386             8150             8137             4373             4374             8138
            7487             8150             8151             7499             7488             8138             8139             7500
            8150             4386             4387             8151             8138             4374             4375             8139
            7499             8151             8152             7511             7500             8139             8140             7512
            8151             4387             4388             8152             8139             4375             4376             8140
            7511             8152             8153             7523             7512             8140             8141             7524
            8152             4388             4389             8153             8140             4376             4377             8141
            7523             8153             8154             7535             7524             8141             8142             7536
            8153             4389             4390             8154             8141             4377             4378             8142
            7535             8154             8155             7547             7536             8142             8143             7548
            8154             4390             4391             8155             8142             4378             4379             8143
            7547             8155             8156             7559             7548             8143             8144             7560
            8155             4391             4392             8156             8143             4379             4380             8144
            7559             8156             7878             7397             7560             8144             7877             7396
            8156             4392             4221             7878             8144             4380             4208             7877
            3076             3101             8157             7426             3075             3100             8145             7427
            3101              331             4393             8157             3100              330             4381             8145
            7426             8157             8158             7438             7427             8145             8146             7439
            8157             4393             4394             8158             8145             4381             4382             8146
            7438             8158             8159             7450             7439             8146             8147             7451
            8158             4394             4395             8159             8146             4382             4383             8147
            7450             8159             8160             7462             7451             8147             8148             7463
            8159             4395             4396             8160             8147             4383             4384             8148
            7462             8160             8161             7474             7463             8148             8149             7475
            8160             4396             4397             8161             8148             4384             4385             8149
            7474             8161             8162             7486             7475             8149             8150             7487
            8161             4397             4398             8162             8149             4385             4386             8150
            7486             8162             8163             7498             7487             8150             8151             7499
            8162             4398             4399             8163             8150             4386             4387             8151
            7498             8163             8164             7510             7499             8151             8152             7511
            8163             4399             4400             8164             8151             4387             4388             8152
            7510             8164             8165             7522             7511             8152             8153             7523
            8164             4400             4401             8165             8152             4388             4389             8153
            7522             8165             8166             7534             7523             8153             8154             7535
            8165             4401             4402             8166             8153             4389             4390             8154
            7534             8166             8167             7546             7535             8154             8155             7547
            8166             4402             4403             8167             8154             4390             4391             8155
            7546             8167             8168             7558             7547             8155             8156             7559
            8167             4403             4404             8168             8155             4391             4392             8156
            7558             8168             7879             7398             7559             8156             7878             7397
            8168             4404             4234             7879             8156             4392             4221             7878
            3077             3102             8169             7425             3076             3101             8157             7426
            3102              332             4405             8169             3101              331             4393             8157
            7425             8169             8170             7437             7426             8157             8158             7438
            8169             4405             4406             8170             8157             4393             4394             8158
            7437             8170             8171             7449             7438             8158             8159             7450
            8170             4406             4407             8171             8158             4394             4395             8159
            7449             8171             8172             7461             7450             8159             8160             7462
            8171             4407             4408             8172             8159             4395             4396             8160
            7461             8172             8173             7473             7462             8160             8161             7474
            8172             4408             4409             8173             8160             4396             4397             8161
            7473             8173             8174             7485             7474             8161             8162             7486
            8173             4409             4410             8174             8161             4397             4398             8162
            7485             8174             8175             7497             7486             8162             8163             7498
            8174             4410             4411             8175             8162             4398             4399             8163
            7497             8175             8176             7509             7498             8163             8164             7510
            8175             4411             4412             8176             8163             4399             4400             8164
            7509             8176             8177             7521             7510             8164             8165             7522
            8176             4412             4413             8177             8164             4400             4401             8165
            7521             8177             8178             7533             7522             8165             8166             7534
            8177             4413             4414             8178             8165             4401             4402             8166
            7533             8178             8179             7545             7534             8166             8167             7546
            8178             4414             4415             8179             8166             4402             4403             8167
            7545             8179             8180             7557             7546             8167             8168             7558
            8179             4415             4416             8180             8167             4403             4404             8168
            7557             8180             7880             7399             7558             8168             7879             7398
            8180             4416             4247             7880             8168             4404             4234             7879
            3078             3103             7881             7411             3077             3102             8169             7425
            3103              333             4417             7881             3102              332             4405             8169
            7411             7881             7882             7410             7425             8169             8170             7437
            7881             4417             4418             7882             8169             4405             4406             8170
            7410             7882             7883             7409             7437             8170             8171             7449
            7882             4418             4419             7883             8170             4406             4407             8171
            7409             7883             7884             7408             7449             8171             8172             7461
            7883             4419             4420             7884             8171             4407             4408             8172
            7408             7884             7885             7407             7461             8172             8173             7473
            7884             4420             4421             7885             8172             4408             4409             8173
            7407             7885             7886             7406             7473             8173             8174             7485
            7885             4421             4422             7886             8173             4409             4410             8174
            7406             7886             7887             7405             7485             8174             8175             7497
            7886             4422             4423             7887             8174             4410             4411             8175
            7405             7887             7888             7404             7497             8175             8176             7509
            7887             4423             4424             7888             8175             4411             4412             8176
            7404             7888             7889             7403             7509             8176             8177             7521
            7888             4424             4425             7889             8176             4412             4413             8177
            7403             7889             7890             7402             7521             8177             8178             7533
            7889             4425             4426             7890             8177             4413             4414             8178
            7402             7890             7891             7401             7533             8178             8179             7545
            7890             4426             4427             7891             8178             4414             4415             8179
            7401             7891             7892             7400             7545             8179             8180             7557
            7891             4427             4428             7892             8179             4415             4416             8180
            7400             7892             7424             7387             7557             8180             7880             7399
            7892             4428             4260             7424             8180             4416             4247             7880
            3103             3104             8181             7881              333              334             4429             4417
            3104             3105             8182             8181              334              335             4430             4429
            3105             3106             8183             8182              335              336             4431             4430
            3106             3107             8184             8183              336              337             4432             4431
            3107             3108             8185             8184              337              338             4433             4432
            3108             3109             8186             8185              338              339             4434             4433
            3109             3110             8187             8186              339              340             4435             4434
            3110             3111             8188             8187              340              341             4436             4435
            3111             3112             8189             8188              341              342             4437             4436
            3112             3113             8190             8189              342              343             4438             4437
            3113             3114             8191             8190              343              344             4439             4438
            3114             3115             8192             8191              344              345             4440             4439
            3115              320             4092             8192              345               10              420             4440
            7881             8181             8193             7882             4417             4429             4441             4418
            8181             8182             8194             8193             4429             4430             4442             4441
            8182             8183             8195             8194             4430             4431             4443             4442
            8183             8184             8196             8195             4431             4432             4444             4443
            8184             8185             8197             8196             4432             4433             4445             4444
            8185             8186             8198             8197             4433             4434             4446             4445
            8186             8187             8199             8198             4434             4435             4447             4446
            8187             8188             8200             8199             4435             4436             4448             4447
            8188             8189             8201             8200             4436             4437             4449             4448
            8189             8190             8202             8201             4437             4438             4450             4449
            8190             8191             8203             8202             4438             4439             4451             4450
            8191             8192             8204             8203             4439             4440             4452             4451
            8192             4092             4093             8204             4440              420              419             4452
            7882             8193             8205             7883             4418             4441             4453             4419
            8193             8194             8206             8205             4441             4442             4454             4453
            8194             8195             8207             8206             4442             4443             4455             4454
            8195             8196             8208             8207             4443             4444             4456             4455
            8196             8197             8209             8208             4444             4445             4457             4456
            8197             8198             8210             8209             4445             4446             4458             4457
            8198             8199             8211             8210             4446             4447             4459             4458
            8199             8200             8212             8211             4447             4448             4460             4459
            8200             8201             8213             8212             4448             4449             4461             4460
            8201             8202             8214             8213             4449             4450             4462             4461
            8202             8203             8215             8214             4450             4451             4463             4462
            8203             8204             8216             8215             4451             4452             4464             4463
            8204             4093             4094             8216             4452              419              418             4464
            7883             8205             8217             7884             4419             4453             4465             4420
            8205             8206             8218             8217             4453             4454             4466             4465
            8206             8207             8219             8218             4454             4455             4467             4466
            8207             8208             8220             8219             4455             4456             4468             4467
            8208             8209             8221             8220             4456             4457             4469             4468
            8209             8210             8222             8221             4457             4458             4470             4469
            8210             8211             8223             8222             4458             4459             4471             4470
            8211             8212             8224             8223             4459             4460             4472             4471
            8212             8213             8225             8224             4460             4461             4473             4472
            8213             8214             8226             8225             4461             4462             4474             4473
            8214             8215             8227             8226             4462             4463             4475             4474
            8215             8216             8228             8227             4463             4464             4476             4475
            8216             4094             4095             8228             4464              418              417             4476
            7884             8217             8229             7885             4420             4465             4477             4421
            8217             8218             8230             8229             4465             4466             4478             4477
            8218             8219             8231             8230             4466             4467             4479             4478
            8219             8220             8232             8231             4467             4468             4480             4479
            8220             8221             8233             8232             4468             4469             4481             4480
            8221             8222             8234             8233             4469             4470             4482             4481
            8222             8223             8235             8234             4470             4471             4483             4482
            8223             8224             8236             8235             4471             4472             4484             4483
            8224             8225             8237             8236             4472             4473             4485             4484
            8225             8226             8238             8237             4473             4474             4486             4485
            8226             8227             8239             8238             4474             4475             4487             4486
            8227             8228             8240             8239             4475             4476             4488             4487
            8228             4095             4096             8240             4476              417              416             4488
            7885             8229             8241             7886             4421             4477             4489             4422
            8229             8230             8242             8241             4477             4478             4490             4489
            8230             8231             8243             8242             4478             4479             4491             4490
            8231             8232             8244             8243             4479             4480             4492             4491
            8232             8233             8245             8244             4480             4481             4493             4492
            8233             8234             8246             8245             4481             4482             4494             4493
            8234             8235             8247             8246             4482             4483             4495             4494
            8235             8236             8248             8247             4483             4484             4496             4495
            8236             8237             8249             8248             4484             4485             4497             4496
            8237             8238             8250             8249             4485             4486             4498             4497
            8238             8239             8251             8250             4486             4487             4499             4498
            8239             8240             8252             8251             4487             4488             4500             4499
            8240             4096             4097             8252             4488              416              415             4500
            7886             8241             8253             7887             4422             4489             4501             4423
            8241             8242             8254             8253             4489             4490             4502             4501
            8242             8243             8255             8254             4490             4491             4503             4502
            8243             8244             8256             8255             4491             4492             4504             4503
            8244             8245             8257             8256             4492             4493             4505             4504
            8245             8246             8258             8257             4493             4494             4506             4505
            8246             8247             8259             8258             4494             4495             4507             4506
            8247             8248             8260             8259             4495             4496             4508             4507
            8248             8249             8261             8260             4496             4497             4509             4508
            8249             8250             8262             8261             4497             4498             4510             4509
            8250             8251             8263             8262             4498             4499             4511             4510
            8251             8252             8264             8263             4499             4500             4512             4511
            8252             4097             4098             8264             4500              415              414             4512
            7887             8253             8265             7888             4423             4501             4513             4424
            8253             8254             8266             8265             4501             4502             4514             4513
            8254             8255             8267             8266             4502             4503             4515             4514
            8255             8256             8268             8267             4503             4504             4516             4515
            8256             8257             8269             8268             4504             4505             4517             4516
            8257             8258             8270             8269             4505             4506             4518             4517
            8258             8259             8271             8270             4506             4507             4519             4518
            8259             8260             8272             8271             4507             4508             4520             4519
            8260             8261             8273             8272             4508             4509             4521             4520
            8261             8262             8274             8273             4509             4510             4522             4521
            8262             8263             8275             8274             4510             4511             4523             4522
            8263             8264             8276             8275             4511             4512             4524             4523
            8264             4098             4099             8276             4512              414              413             4524
            7888             8265             8277             7889             4424             4513             4525             4425
            8265             8266             8278             8277             4513             4514             4526             4525
            8266             8267             8279             8278             4514             4515             4527             4526
            8267             8268             8280             8279             4515             4516             4528             4527
            8268             8269             8281             8280             4516             4517             4529             4528
            8269             8270             8282             8281             4517             4518             4530             4529
            8270             8271             8283             8282             4518             4519             4531             4530
            8271             8272             8284             8283             4519             4520             4532             4531
            8272             8273             8285             8284             4520             4521             4533             4532
            8273             8274             8286             8285             4521             4522             4534             4533
            8274             8275             8287             8286             4522             4523             4535             4534
            8275             8276             8288             8287             4523             4524             4536             4535
            8276             4099             4100             8288             4524              413              412             4536
            7889             8277             8289             7890             4425             4525             4537             4426
            8277             8278             8290             8289             4525             4526             4538             4537
            8278             8279             8291             8290             4526             4527             4539             4538
            8279             8280             8292             8291             4527             4528             4540             4539
            8280             8281             8293             8292             4528             4529             4541             4540
            8281             8282             8294             8293             4529             4530             4542             4541
            8282             8283             8295             8294             4530             4531             4543             4542
            8283             8284             8296             8295             4531             4532             4544             4543
            8284             8285             8297             8296             4532             4533             4545             4544
            8285             8286             8298             8297             4533             4534             4546             4545
            8286             8287             8299             8298             4534             4535             4547             4546
            8287             8288             8300             8299             4535             4536             4548             4547
            8288             4100             4101             8300             4536              412              411             4548
            7890             8289             8301             7891             4426             4537             4549             4427
            8289             8290             8302             8301             4537             4538             4550             4549
            8290             8291             8303             8302             4538             4539             4551             4550
            8291             8292             8304             8303             4539             4540             4552             4551
            8292             8293             8305             8304             4540             4541             4553             4552
            8293             8294             8306             8305             4541             4542             4554             4553
            8294             8295             8307             8306             4542             4543             4555             4554
            8295             8296             8308             8307             4543             4544             4556             4555
            8296             8297             8309             8308             4544             4545             4557             4556
            8297             8298             8310             8309             4545             4546             4558             4557
            8298             8299             8311             8310             4546             4547             4559             4558
            8299             8300             8312             8311             4547             4548             4560             4559
            8300             4101             4102             8312             4548              411              410             4560
            7891             8301             8313             7892             4427             4549             4561             4428
            8301             8302             8314             8313             4549             4550             4562             4561
            8302             8303             8315             8314             4550             4551             4563             4562
            8303             8304             8316             8315             4551             4552             4564             4563
            8304             8305             8317             8316             4552             4553             4565             4564
            8305             8306             8318             8317             4553             4554             4566             4565
            8306             8307             8319             8318             4554             4555             4567             4566
            8307             8308             8320             8319             4555             4556             4568             4567
            8308             8309             8321             8320             4556             4557             4569             4568
            8309             8310             8322             8321             4557             4558             4570             4569
            8310             8311             8323             8322             4558             4559             4571             4570
            8311             8312             8324             8323             4559             4560             4572             4571
            8312             4102             4103             8324             4560              410              409             4572
            7892             8313             7857             7424             4428             4561             4261             4260
            8313             8314             7858             7857             4561             4562             4262             4261
            8314             8315             7859             7858             4562             4563             4263             4262
            8315             8316             7860             7859             4563             4564             4264             4263
            8316             8317             7861             7860             4564             4565             4265             4264
            8317             8318             7862             7861             4565             4566             4266             4265
            8318             8319             7863             7862             4566             4567             4267             4266
            8319             8320             7864             7863             4567             4568             4268             4267
            8320             8321             7865             7864             4568             4569             4269             4268
            8321             8322             7866             7865             4569             4570             4270             4269
            8322             8323             7867             7866             4570             4571             4271             4270
            8323             8324             7868             7867             4571             4572             4272             4271
            8324             4103             4091             7868             4572              409              408             4272
            3078             3079             7856             7411             3103             3104             8181             7881
            3079             3080             7844             7856             3104             3105             8182             8181
            3080             3081             7832             7844             3105             3106             8183             8182
            3081             3082             7820             7832             3106             3107             8184             8183
            3082             3083             7808             7820             3107             3108             8185             8184
            3083             3084             7796             7808             3108             3109             8186             8185
            3084             3085             7784             7796             3109             3110             8187             8186
            3085             3086             7772             7784             3110             3111             8188             8187
            3086             3087             7760             7772             3111             3112             8189             8188
            3087             3088             7748             7760             3112             3113             8190             8189
            3088             3089             7736             7748             3113             3114             8191             8190
            3089             3090             7724             7736             3114             3115             8192             8191
            3090              319             4078             7724             3115              320             4092             8192
            7411             7856             7855             7410             7881             8181             8193             7882
            7856             7844             7843             7855             8181             8182             8194             8193
            7844             7832             7831             7843             8182             8183             8195             8194
            7832             7820             7819             7831             8183             8184             8196             8195
            7820             7808             7807             7819             8184             8185             8197             8196
            7808             7796             7795             7807             8185             8186             8198             8197
            7796             7784             7783             7795             8186             8187             8199             8198
            7784             7772             7771             7783             8187             8188             8200             8199
            7772             7760             7759             7771             8188             8189             8201             8200
            7760             7748             7747             7759             8189             8190             8202             8201
            7748             7736             7735             7747             8190             8191             8203             8202
            7736             7724             7723             7735             8191             8192             8204             8203
            7724             4078             4077             7723             8192             4092             4093             8204
            7410             7855             7854             7409             7882             8193             8205             7883
            7855             7843             7842             7854             8193             8194             8206             8205
            7843             7831             7830             7842             8194             8195             8207             8206
            7831             7819             7818             7830             8195             8196             8208             8207
            7819             7807             7806             7818             8196             8197             8209             8208
            7807             7795             7794             7806             8197             8198             8210             8209
            7795             7783             7782             7794             8198             8199             8211             8210
            7783             7771             7770             7782             8199             8200             8212             8211
            7771             7759             7758             7770             8200             8201             8213             8212
            7759             7747             7746             7758             8201             8202             8214             8213
            7747             7735             7734             7746             8202             8203             8215             8214
            7735             7723             7722             7734             8203             8204             8216             8215
            7723             4077             4076             7722             8204             4093             4094             8216
            7409             7854             7853             7408             7883             8205             8217             7884
            7854             7842             7841             7853             8205             8206             8218             8217
            7842             7830             7829             7841             8206             8207             8219             8218
            7830             7818             7817             7829             8207             8208             8220             8219
            7818             7806             7805             7817             8208             8209             8221             8220
            7806             7794             7793             7805             8209             8210             8222             8221
            7794             7782             7781             7793             8210             8211             8223             8222
            7782             7770             7769             7781             8211             8212             8224             8223
            7770             7758             7757             7769             8212             8213             8225             8224
            7758             7746             7745             7757             8213             8214             8226             8225
            7746             7734             7733             7745             8214             8215             8227             8226
            7734             7722             7721             7733             8215             8216             8228             8227
            7722             4076             4075             7721             8216             4094             4095             8228
            7408             7853             7852             7407             7884             8217             8229             7885
            7853             7841             7840             7852             8217             8218             8230             8229
            7841             7829             7828             7840             8218             8219             8231             8230
            7829             7817             7816             7828             8219             8220             8232             8231
            7817             7805             7804             7816             8220             8221             8233             8232
            7805             7793             7792             7804             8221             8222             8234             8233
            7793             7781             7780             7792             8222             8223             8235             8234
            7781             7769             7768             7780             8223             8224             8236             8235
            7769             7757             7756             7768             8224             8225             8237             8236
            7757             7745             7744             7756             8225             8226             8238             8237
            7745             7733             7732             7744             8226             8227             8239             8238
            7733             7721             7720             7732             8227             8228             8240             8239
            7721             4075             4074             7720             8228             4095             4096             8240
            7407             7852             7851             7406             7885             8229             8241             7886
            7852             7840             7839             7851             8229             8230             8242             8241
            7840             7828             7827             7839             8230             8231             8243             8242
            7828             7816             7815             7827             8231             8232             8244             8243
            7816             7804             7803             7815             8232             8233             8245             8244
            7804             7792             7791             7803             8233             8234             8246             8245
            7792             7780             7779             7791             8234             8235             8247             8246
            7780             7768             7767             7779             8235             8236             8248             8247
            7768             7756             7755             7767             8236             8237             8249             8248
            7756             7744             7743             7755             8237             8238             8250             8249
            7744             7732             7731             7743             8238             8239             8251             8250
            7732             7720             7719             7731             8239             8240             8252             8251
            7720             4074             4073             7719             8240             4096             4097             8252
            7406             7851             7850             7405             7886             8241             8253             7887
            7851             7839             7838             7850             8241             8242             8254             8253
            7839             7827             7826             7838             8242             8243             8255             8254
            7827             7815             7814             7826             8243             8244             8256             8255
            7815             7803             7802             7814             8244             8245             8257             8256
            7803             7791             7790             7802             8245             8246             8258             8257
            7791             7779             7778             7790             8246             8247             8259             8258
            7779             7767             7766             7778             8247             8248             8260             8259
            7767             7755             7754             7766             8248             8249             8261             8260
            7755             7743             7742             7754             8249             8250             8262             8261
            7743             7731             7730             7742             8250             8251             8263             8262
            7731             7719             7718             7730             8251             8252             8264             8263
            7719             4073             4072             7718             8252             4097             4098             8264
            7405             7850             7849             7404             7887             8253             8265             7888
            7850             7838             7837             7849             8253             8254             8266             8265
            7838             7826             7825             7837             8254             8255             8267             8266
            7826             7814             7813             7825             8255             8256             8268             8267
            7814             7802             7801             7813             8256             8257             8269             8268
            7802             7790             7789             7801             8257             8258             8270             8269
            7790             7778             7777             7789             8258             8259             8271             8270
            7778             7766             7765             7777             8259             8260             8272             8271
            7766             7754             7753             7765             8260             8261             8273             8272
            7754             7742             7741             7753             8261             8262             8274             8273
            7742             7730             7729             7741             8262             8263             8275             8274
            7730             7718             7717             7729             8263             8264             8276             8275
            7718             4072             4071             7717             8264             4098             4099             8276
            7404             7849             7848             7403             7888             8265             8277             7889
            7849             7837             7836             7848             8265             8266             8278             8277
            7837             7825             7824             7836             8266             8267             8279             8278
            7825             7813             7812             7824             8267             8268             8280             8279
            7813             7801             7800             7812             8268             8269             8281             8280
            7801             7789             7788             7800             8269             8270             8282             8281
            7789             7777             7776             7788             8270             8271             8283             8282
            7777             7765             7764             7776             8271             8272             8284             8283
            7765             7753             7752             7764             8272             8273             8285             8284
            7753             7741             7740             7752             8273             8274             8286             8285
            7741             7729             7728             7740             8274             8275             8287             8286
            7729             7717             7716             7728             8275             8276             8288             8287
            7717             4071             4070             7716             8276             4099             4100             8288
            7403             7848             7847             7402             7889             8277             8289             7890
            7848             7836             7835             7847             8277             8278             8290             8289
            7836             7824             7823             7835             8278             8279             8291             8290
            7824             7812             7811             7823             8279             8280             8292             8291
            7812             7800             7799             7811             8280             8281             8293             8292
            7800             7788             7787             7799             8281             8282             8294             8293
            7788             7776             7775             7787             8282             8283             8295             8294
            7776             7764             7763             7775             8283             8284             8296             8295
            7764             7752             7751             7763             8284             8285             8297             8296
            7752             7740             7739             7751             8285             8286             8298             8297
            7740             7728             7727             7739             8286             8287             8299             8298
            7728             7716             7715             7727             8287             8288             8300             8299
            7716             4070             4069             7715             8288             4100             4101             8300
            7402             7847             7846             7401             7890             8289             8301             7891
            7847             7835             7834             7846             8289             8290             8302             8301
            7835             7823             7822             7834             8290             8291             8303             8302
            7823             7811             7810             7822             8291             8292             8304             8303
            7811             7799             7798             7810             8292             8293             8305             8304
            7799             7787             7786             7798             8293             8294             8306             8305
            7787             7775             7774             7786             8294             8295             8307             8306
            7775             7763             7762             7774             8295             8296             8308             8307
            7763             7751             7750             7762             8296             8297             8309             8308
            7751             7739             7738             7750             8297             8298             8310             8309
            7739             7727             7726             7738             8298             8299             8311             8310
            7727             7715             7714             7726             8299             8300             8312             8311
            7715             4069             4068             7714             8300             4101             4102             8312
            7401             7846             7845             7400             7891             8301             8313             7892
            7846             7834             7833             7845             8301             8302             8314             8313
            7834             7822             7821             7833             8302             8303             8315             8314
            7822             7810             7809             7821             8303             8304             8316             8315
            7810             7798             7797             7809             8304             8305             8317             8316
            7798             7786             7785             7797             8305             8306             8318             8317
            7786             7774             7773             7785             8306             8307             8319             8318
            7774             7762             7761             7773             8307             8308             8320             8319
            7762             7750             7749             7761             8308             8309             8321             8320
            7750             7738             7737             7749             8309             8310             8322             8321
            7738             7726             7725             7737             8310             8311             8323             8322
            7726             7714             7713             7725             8311             8312             8324             8323
            7714             4068             4067             7713             8312             4102             4103             8324
            7400             7845             7412             7387             7892             8313             7857             7424
            7845             7833             7413             7412             8313             8314             7858             7857
            7833             7821             7414             7413             8314             8315             7859             7858
            7821             7809             7415             7414             8315             8316             7860             7859
            7809             7797             7416             7415             8316             8317             7861             7860
            7797             7785             7417             7416             8317             8318             7862             7861
            7785             7773             7418             7417             8318             8319             7863             7862
            7773             7761             7419             7418             8319             8320             7864             7863
            7761             7749             7420             7419             8320             8321             7865             7864
            7749             7737             7421             7420             8321             8322             7866             7865
            7737             7725             7422             7421             8322             8323             7867             7866
            7725             7713             7423             7422             8323             8324             7868             7867
            7713             4067             4066             7423             8324             4103             4091             7868
